     Program PWSCF v.7.1 starts on  5Dec2023 at 19:18:34

     Reading input from pw_mp-2542_scf_k3000_E94.in
Warning: card &CELL ignored
Warning: card / ignored

     Current dimensions of program PWSCF are:
     Max number of different atomic species (ntypx) = 10
     Max number of k-points (npk) =  40000
     Max angular momentum in pseudopotentials (lmaxx) =  4

     R & G space division:  proc/nbgrp/npool/nimage =      24
     Subspace diagonalization in iterative solution of the eigenvalue problem:
     a serial algorithm will be used

     Using Slab Decomposition

     bravais-lattice index     =            4
     lattice parameter (alat)  =       5.0914  a.u.
     unit-cell volume          =     185.6482 (a.u.)^3
     number of atoms/cell      =            4
     number of atomic types    =            2
     number of electrons       =        20.00
     number of Kohn-Sham states=           20
     kinetic-energy cutoff     =      94.0000  Ry
     charge density cutoff     =     376.0000  Ry
     scf convergence threshold =      1.0E-10
     mixing beta               =       0.7000
     number of iterations used =            8  plain     mixing
     Exchange-correlation= PBE
                           (   1   4   3   4   0   0   0)

     celldm(1)=   5.091445  celldm(2)=   0.000000  celldm(3)=   1.624191
     celldm(4)=   0.000000  celldm(5)=   0.000000  celldm(6)=   0.000000

     crystal axes: (cart. coord. in units of alat)
               a(1) = (   1.000000   0.000000   0.000000 )
               a(2) = (  -0.500000   0.866025   0.000000 )
               a(3) = (   0.000000   0.000000   1.624191 )

     reciprocal axes: (cart. coord. in units 2 pi/alat)
               b(1) = (  1.000000  0.577350  0.000000 )
               b(2) = (  0.000000  1.154701  0.000000 )
               b(3) = (  0.000000  0.000000  0.615691 )

     PseudoPot. # 1 for Be read from file:
     /usr/scratch4/magr4985/MG/HTDF/pseudo/SG15/Be.upf
     MD5 check sum: dc1f98d164da9dc61a6fd2fad64b4ce2
     Pseudo is Norm-conserving, Zval =  4.0
     Generated using ONCVPSP code by D. R. Hamann
     Using radial grid of  602 points,  4 beta functions with:
                l(1) =   0
                l(2) =   0
                l(3) =   1
                l(4) =   1

     PseudoPot. # 2 for O  read from file:
     /usr/scratch4/magr4985/MG/HTDF/pseudo/SG15/O.upf
     MD5 check sum: e36c48deb68f4e355fffe4602be2c42c
     Pseudo is Norm-conserving, Zval =  6.0
     Generated using ONCVPSP code by D. R. Hamann
     Using radial grid of  602 points,  4 beta functions with:
                l(1) =   0
                l(2) =   0
                l(3) =   1
                l(4) =   1

     atomic species   valence    mass     pseudopotential
        Be             4.00     9.01220     Be( 1.00)
        O              6.00    15.99940     O ( 1.00)

      6 Sym. Ops. (no inversion) found

   Cartesian axes

     site n.     atom                  positions (alat units)
         1           Be  tau(   1) = (   0.5000000   0.2886752   0.0002601  )
         2           Be  tau(   2) = (   0.0000000   0.5773502   0.8123555  )
         3           O   tau(   3) = (   0.5000000   0.2886752   0.6128719  )
         4           O   tau(   4) = (   0.0000000   0.5773502   1.4249672  )

     number of k points=    72  Gaussian smearing, width (Ry)=  0.0005
                       cart. coord. in units 2pi/alat
        k(    1) = (   0.0000000   0.0000000   0.0000000), wk =   0.0033333
        k(    2) = (   0.0000000   0.0000000   0.1026152), wk =   0.0066667
        k(    3) = (   0.0000000   0.0000000   0.2052304), wk =   0.0066667
        k(    4) = (   0.0000000   0.0000000  -0.3078456), wk =   0.0033333
        k(    5) = (   0.0000000   0.1154701   0.0000000), wk =   0.0200000
        k(    6) = (   0.0000000   0.1154701   0.1026152), wk =   0.0200000
        k(    7) = (   0.0000000   0.1154701   0.2052304), wk =   0.0200000
        k(    8) = (   0.0000000   0.1154701  -0.3078456), wk =   0.0200000
        k(    9) = (   0.0000000   0.2309401   0.0000000), wk =   0.0200000
        k(   10) = (   0.0000000   0.2309401   0.1026152), wk =   0.0200000
        k(   11) = (   0.0000000   0.2309401   0.2052304), wk =   0.0200000
        k(   12) = (   0.0000000   0.2309401  -0.3078456), wk =   0.0200000
        k(   13) = (   0.0000000   0.3464102   0.0000000), wk =   0.0200000
        k(   14) = (   0.0000000   0.3464102   0.1026152), wk =   0.0200000
        k(   15) = (   0.0000000   0.3464102   0.2052304), wk =   0.0200000
        k(   16) = (   0.0000000   0.3464102  -0.3078456), wk =   0.0200000
        k(   17) = (   0.0000000   0.4618802   0.0000000), wk =   0.0200000
        k(   18) = (   0.0000000   0.4618802   0.1026152), wk =   0.0200000
        k(   19) = (   0.0000000   0.4618802   0.2052304), wk =   0.0200000
        k(   20) = (   0.0000000   0.4618802  -0.3078456), wk =   0.0200000
        k(   21) = (   0.0000000  -0.5773503   0.0000000), wk =   0.0100000
        k(   22) = (   0.0000000  -0.5773503   0.1026152), wk =   0.0200000
        k(   23) = (   0.0000000  -0.5773503   0.2052304), wk =   0.0200000
        k(   24) = (   0.0000000  -0.5773503  -0.3078456), wk =   0.0100000
        k(   25) = (   0.1000000   0.1732051   0.0000000), wk =   0.0200000
        k(   26) = (   0.1000000   0.1732051   0.1026152), wk =   0.0400000
        k(   27) = (   0.1000000   0.1732051   0.2052304), wk =   0.0400000
        k(   28) = (   0.1000000   0.1732051  -0.3078456), wk =   0.0200000
        k(   29) = (   0.1000000   0.2886751   0.0000000), wk =   0.0400000
        k(   30) = (   0.1000000   0.2886751   0.1026152), wk =   0.0400000
        k(   31) = (   0.1000000   0.2886751   0.2052304), wk =   0.0400000
        k(   32) = (   0.1000000   0.2886751  -0.3078456), wk =   0.0400000
        k(   33) = (   0.1000000   0.4041452   0.0000000), wk =   0.0400000
        k(   34) = (   0.1000000   0.4041452   0.1026152), wk =   0.0400000
        k(   35) = (   0.1000000   0.4041452   0.2052304), wk =   0.0400000
        k(   36) = (   0.1000000   0.4041452  -0.3078456), wk =   0.0400000
        k(   37) = (   0.1000000   0.5196152   0.0000000), wk =   0.0400000
        k(   38) = (   0.1000000   0.5196152   0.1026152), wk =   0.0400000
        k(   39) = (   0.1000000   0.5196152   0.2052304), wk =   0.0400000
        k(   40) = (   0.1000000   0.5196152  -0.3078456), wk =   0.0400000
        k(   41) = (   0.2000000   0.3464102   0.0000000), wk =   0.0200000
        k(   42) = (   0.2000000   0.3464102   0.1026152), wk =   0.0400000
        k(   43) = (   0.2000000   0.3464102   0.2052304), wk =   0.0400000
        k(   44) = (   0.2000000   0.3464102  -0.3078456), wk =   0.0200000
        k(   45) = (   0.2000000   0.4618802   0.0000000), wk =   0.0400000
        k(   46) = (   0.2000000   0.4618802   0.1026152), wk =   0.0400000
        k(   47) = (   0.2000000   0.4618802   0.2052304), wk =   0.0400000
        k(   48) = (   0.2000000   0.4618802  -0.3078456), wk =   0.0400000
        k(   49) = (   0.2000000   0.5773503   0.0000000), wk =   0.0200000
        k(   50) = (   0.2000000   0.5773503   0.1026152), wk =   0.0400000
        k(   51) = (   0.2000000   0.5773503   0.2052304), wk =   0.0400000
        k(   52) = (   0.2000000   0.5773503  -0.3078456), wk =   0.0200000
        k(   53) = (   0.3000000   0.5196152   0.0000000), wk =   0.0200000
        k(   54) = (   0.3000000   0.5196152   0.1026152), wk =   0.0400000
        k(   55) = (   0.3000000   0.5196152   0.2052304), wk =   0.0400000
        k(   56) = (   0.3000000   0.5196152  -0.3078456), wk =   0.0200000
        k(   57) = (   0.0000000  -0.1154701   0.1026152), wk =   0.0200000
        k(   58) = (   0.0000000  -0.1154701   0.2052304), wk =   0.0200000
        k(   59) = (   0.0000000  -0.2309401   0.1026152), wk =   0.0200000
        k(   60) = (   0.0000000  -0.2309401   0.2052304), wk =   0.0200000
        k(   61) = (   0.0000000  -0.3464102   0.1026152), wk =   0.0200000
        k(   62) = (   0.0000000  -0.3464102   0.2052304), wk =   0.0200000
        k(   63) = (   0.0000000  -0.4618802   0.1026152), wk =   0.0200000
        k(   64) = (   0.0000000  -0.4618802   0.2052304), wk =   0.0200000
        k(   65) = (  -0.1000000  -0.2886751   0.1026152), wk =   0.0400000
        k(   66) = (  -0.1000000  -0.2886751   0.2052304), wk =   0.0400000
        k(   67) = (  -0.1000000  -0.4041452   0.1026152), wk =   0.0400000
        k(   68) = (  -0.1000000  -0.4041452   0.2052304), wk =   0.0400000
        k(   69) = (  -0.1000000  -0.5196152   0.1026152), wk =   0.0400000
        k(   70) = (  -0.1000000  -0.5196152   0.2052304), wk =   0.0400000
        k(   71) = (  -0.2000000  -0.4618802   0.1026152), wk =   0.0400000
        k(   72) = (  -0.2000000  -0.4618802   0.2052304), wk =   0.0400000

     Initial potential from superposition of free atoms

     starting charge      19.9483, renormalised to      20.0000
     Starting wfcs are random

     Self-consistent Calculation

     iteration #  1     ecut=    94.00 Ry     beta= 0.70
     Davidson diagonalization with overlap
     ethr =  1.00E-02,  avg # of iterations =  8.1

     total energy              =    -117.46193636 Ry
     estimated scf accuracy    <       0.49644219 Ry

[...]

     total energy              =    -117.63918266 Ry
     estimated scf accuracy    <          2.0E-10 Ry

     iteration #  9     ecut=    94.00 Ry     beta= 0.70
     Davidson diagonalization with overlap
     ethr =  9.85E-13,  avg # of iterations =  2.0

     End of self-consistent calculation

          k = 0.0000 0.0000 0.0000 (  2863 PWs)   bands (ev):

   -90.2019 -90.1992 -12.1358 -10.3263   0.2623   5.5158   5.5158   6.4960
     6.4960   6.5166  14.2208  18.2318  20.8963  20.8963  21.4108  21.8082
    23.0357  23.0357  30.1915  30.2799

[...]

          k = 0.0000-0.4619 0.2052 (  2845 PWs)   bands (ev):

[...]

          k =-0.1000-0.2887 0.1026 (  2845 PWs)   bands (ev):

[...]

          k =-0.2000-0.4619 0.2052 (  2859 PWs)   bands (ev):

   -90.1990 -90.1986 -10.3121  -9.9820   1.4066   1.8556   3.1730   3.7957
     4.5910   5.3260  16.7202  17.3834  19.9003  20.5243  23.1862  23.8164
    24.7225  25.0368  27.4293  29.2790

     the Fermi energy is    10.7074 ev

!    total energy              =    -117.63918266 Ry
     estimated scf accuracy    <          5.5E-11 Ry
     smearing contrib. (-TS)   =      -0.00000000 Ry
     internal energy E=F+TS    =    -117.63918266 Ry

     The total energy is F=E-TS. E is the sum of the following terms:
     one-electron contribution =     -39.06442713 Ry
     hartree contribution      =      21.24069811 Ry
     xc contribution           =     -22.87457614 Ry
     ewald contribution        =     -76.94087750 Ry

     convergence has been achieved in   9 iterations

     Writing all to output data dir out/mp-2542.save/

     General routines

     Parallel routines

   This run was terminated on:  19:18:45   5Dec2023

   JOB DONE.