     Program PWSCF v.7.1 starts on  5Apr2024 at 15:16:42

     Reading input from pw_BN_scf_k3000_E62.in
Warning: card &CELL ignored
Warning: card / ignored

     Current dimensions of program PWSCF are:
     Max number of different atomic species (ntypx) = 10
     Max number of k-points (npk) =  40000
     Max angular momentum in pseudopotentials (lmaxx) =  4

     R & G space division:  proc/nbgrp/npool/nimage =      32
     Subspace diagonalization in iterative solution of the eigenvalue problem:
     a serial algorithm will be used

     Using Slab Decomposition

     bravais-lattice index     =            4
     lattice parameter (alat)  =       4.7160  a.u.
     unit-cell volume          =     618.7652 (a.u.)^3
     number of atoms/cell      =            2
     number of atomic types    =            2
     number of electrons       =         8.00
     number of Kohn-Sham states=            8
     kinetic-energy cutoff     =      62.0000  Ry
     charge density cutoff     =     248.0000  Ry
     scf convergence threshold =      1.0E-10
     mixing beta               =       0.7000
     number of iterations used =            8  plain     mixing
     Exchange-correlation= PBE
                           (   1   4   3   4   0   0   0)

     celldm(1)=   4.716000  celldm(2)=   0.000000  celldm(3)=   6.811990
     celldm(4)=   0.000000  celldm(5)=   0.000000  celldm(6)=   0.000000

     crystal axes: (cart. coord. in units of alat)
               a(1) = (   1.000000   0.000000   0.000000 )
               a(2) = (  -0.500000   0.866025   0.000000 )
               a(3) = (   0.000000   0.000000   6.811990 )

     reciprocal axes: (cart. coord. in units 2 pi/alat)
               b(1) = (  1.000000  0.577350  0.000000 )
               b(2) = (  0.000000  1.154701  0.000000 )
               b(3) = (  0.000000  0.000000  0.146800 )

     PseudoPot. # 1 for B  read from file:
     /usr/scratch4/magr4985/FGWC/FGWC/pseudo/SG15/B.upf
     MD5 check sum: eb3cbeacc2d324d57d903df00f564d27
     Pseudo is Norm-conserving, Zval =  3.0
     Generated using ONCVPSP code by D. R. Hamann
     Using radial grid of  602 points,  4 beta functions with:
                l(1) =   0
                l(2) =   0
                l(3) =   1
                l(4) =   1

     PseudoPot. # 2 for N  read from file:
     /usr/scratch4/magr4985/FGWC/FGWC/pseudo/SG15/N.upf
     MD5 check sum: c233fa8df51455e992258b7c3dee8a9f
     Pseudo is Norm-conserving, Zval =  5.0
     Generated using ONCVPSP code by D. R. Hamann
     Using radial grid of  602 points,  4 beta functions with:
                l(1) =   0
                l(2) =   0
                l(3) =   1
                l(4) =   1

     atomic species   valence    mass     pseudopotential
        B              3.00    10.81100     B ( 1.00)
        N              5.00    14.00670     N ( 1.00)

     12 Sym. Ops. (no inversion) found

   Cartesian axes

     site n.     atom                  positions (alat units)
         1           B   tau(   1) = (   0.0000000   0.5773502   0.0000000  )
         2           N   tau(   2) = (   0.5000000   0.2886752   0.0000000  )

     number of k points=    52  Gaussian smearing, width (Ry)=  0.0018
                       cart. coord. in units 2pi/alat
        k(    1) = (   0.0000000   0.0000000   0.0000000), wk =   0.0041322
        k(    2) = (   0.0000000   0.0524864   0.0000000), wk =   0.0247934
        k(    3) = (   0.0000000   0.1049728   0.0000000), wk =   0.0247934
        k(    4) = (   0.0000000   0.1574592   0.0000000), wk =   0.0247934
        k(    5) = (   0.0000000   0.2099456   0.0000000), wk =   0.0247934
        k(    6) = (   0.0000000   0.2624319   0.0000000), wk =   0.0247934
        k(    7) = (   0.0000000   0.3149183   0.0000000), wk =   0.0247934
        k(    8) = (   0.0000000   0.3674047   0.0000000), wk =   0.0247934
        k(    9) = (   0.0000000   0.4198911   0.0000000), wk =   0.0247934
        k(   10) = (   0.0000000   0.4723775   0.0000000), wk =   0.0247934
        k(   11) = (   0.0000000   0.5248639   0.0000000), wk =   0.0247934
        k(   12) = (   0.0000000  -0.5773503   0.0000000), wk =   0.0123967
        k(   13) = (   0.0454545   0.0787296   0.0000000), wk =   0.0247934
        k(   14) = (   0.0454545   0.1312160   0.0000000), wk =   0.0495868
        k(   15) = (   0.0454545   0.1837024   0.0000000), wk =   0.0495868
        k(   16) = (   0.0454545   0.2361887   0.0000000), wk =   0.0495868
        k(   17) = (   0.0454545   0.2886751   0.0000000), wk =   0.0495868
        k(   18) = (   0.0454545   0.3411615   0.0000000), wk =   0.0495868
        k(   19) = (   0.0454545   0.3936479   0.0000000), wk =   0.0495868
        k(   20) = (   0.0454545   0.4461343   0.0000000), wk =   0.0495868
        k(   21) = (   0.0454545   0.4986207   0.0000000), wk =   0.0495868
        k(   22) = (   0.0454545   0.5511071   0.0000000), wk =   0.0495868
        k(   23) = (   0.0909091   0.1574592   0.0000000), wk =   0.0247934
        k(   24) = (   0.0909091   0.2099456   0.0000000), wk =   0.0495868
        k(   25) = (   0.0909091   0.2624319   0.0000000), wk =   0.0495868
        k(   26) = (   0.0909091   0.3149183   0.0000000), wk =   0.0495868
        k(   27) = (   0.0909091   0.3674047   0.0000000), wk =   0.0495868
        k(   28) = (   0.0909091   0.4198911   0.0000000), wk =   0.0495868
        k(   29) = (   0.0909091   0.4723775   0.0000000), wk =   0.0495868
        k(   30) = (   0.0909091   0.5248639   0.0000000), wk =   0.0495868
        k(   31) = (   0.0909091   0.5773503   0.0000000), wk =   0.0247934
        k(   32) = (   0.1363636   0.2361887   0.0000000), wk =   0.0247934
        k(   33) = (   0.1363636   0.2886751   0.0000000), wk =   0.0495868
        k(   34) = (   0.1363636   0.3411615   0.0000000), wk =   0.0495868
        k(   35) = (   0.1363636   0.3936479   0.0000000), wk =   0.0495868
        k(   36) = (   0.1363636   0.4461343   0.0000000), wk =   0.0495868
        k(   37) = (   0.1363636   0.4986207   0.0000000), wk =   0.0495868
        k(   38) = (   0.1363636   0.5511071   0.0000000), wk =   0.0495868
        k(   39) = (   0.1818182   0.3149183   0.0000000), wk =   0.0247934
        k(   40) = (   0.1818182   0.3674047   0.0000000), wk =   0.0495868
        k(   41) = (   0.1818182   0.4198911   0.0000000), wk =   0.0495868
        k(   42) = (   0.1818182   0.4723775   0.0000000), wk =   0.0495868
        k(   43) = (   0.1818182   0.5248639   0.0000000), wk =   0.0495868
        k(   44) = (   0.1818182   0.5773503   0.0000000), wk =   0.0247934
        k(   45) = (   0.2272727   0.3936479   0.0000000), wk =   0.0247934
        k(   46) = (   0.2272727   0.4461343   0.0000000), wk =   0.0495868
        k(   47) = (   0.2272727   0.4986207   0.0000000), wk =   0.0495868
        k(   48) = (   0.2272727   0.5511071   0.0000000), wk =   0.0495868
        k(   49) = (   0.2727273   0.4723775   0.0000000), wk =   0.0247934
        k(   50) = (   0.2727273   0.5248639   0.0000000), wk =   0.0495868
        k(   51) = (   0.2727273   0.5773503   0.0000000), wk =   0.0247934
        k(   52) = (   0.3181818   0.5511071   0.0000000), wk =   0.0247934

     Initial potential from superposition of free atoms

     starting charge       7.9803, renormalised to       8.0000

     negative rho (up, down):  1.133E-04 0.000E+00
     Starting wfcs are random

     Self-consistent Calculation

     iteration #  1     ecut=    62.00 Ry     beta= 0.70
     Davidson diagonalization with overlap
     ethr =  1.00E-02,  avg # of iterations = 11.1

     negative rho (up, down):  3.086E-08 0.000E+00

     total energy              =     -25.67502030 Ry
     estimated scf accuracy    <       0.31447946 Ry

[...]

     total energy              =     -25.75824015 Ry
     estimated scf accuracy    <          1.1E-09 Ry

     iteration # 11     ecut=    62.00 Ry     beta= 0.70
     Davidson diagonalization with overlap
     ethr =  1.33E-11,  avg # of iterations =  2.0

     End of self-consistent calculation

          k = 0.0000 0.0000 0.0000 (  5055 PWs)   bands (ev):

   -21.4317  -9.0300  -5.0945  -5.0945   0.9668   1.9002   2.3095   3.6625

[...]

          k = 0.3182 0.5511 0.0000 (  5130 PWs)   bands (ev):

   -17.7566 -11.7711 -10.8437  -3.7700   1.0351   8.7797   9.6006  10.8133

     the Fermi energy is    -1.2161 ev

!    total energy              =     -25.75824015 Ry
     estimated scf accuracy    <          7.3E-12 Ry
     smearing contrib. (-TS)   =      -0.00000000 Ry
     internal energy E=F+TS    =     -25.75824015 Ry

     The total energy is F=E-TS. E is the sum of the following terms:
     one-electron contribution =    -183.13499521 Ry
     hartree contribution      =      93.16978998 Ry
     xc contribution           =      -7.38943065 Ry
     ewald contribution        =      71.59639573 Ry

     convergence has been achieved in  11 iterations

     Writing all to output data dir out/BN.save/

     General routines

     Parallel routines

   This run was terminated on:  15:16:47   5Apr2024

   JOB DONE.