     Program PWSCF v.7.1 starts on  6Dec2023 at  2:26:53

     Reading input from pw_mp-22894_scf_k3000_E51.in
Warning: card &CELL ignored
Warning: card / ignored

     Current dimensions of program PWSCF are:
     Max number of different atomic species (ntypx) = 10
     Max number of k-points (npk) =  40000
     Max angular momentum in pseudopotentials (lmaxx) =  4

     R & G space division:  proc/nbgrp/npool/nimage =      24
     Subspace diagonalization in iterative solution of the eigenvalue problem:
     a serial algorithm will be used

     Using Slab Decomposition

     bravais-lattice index     =            4
     lattice parameter (alat)  =       8.8034  a.u.
     unit-cell volume          =     957.9312 (a.u.)^3
     number of atoms/cell      =            4
     number of atomic types    =            2
     number of electrons       =        72.00
     number of Kohn-Sham states=           72
     kinetic-energy cutoff     =      51.0000  Ry
     charge density cutoff     =     204.0000  Ry
     scf convergence threshold =      1.0E-10
     mixing beta               =       0.7000
     number of iterations used =            8  plain     mixing
     Exchange-correlation= PBE
                           (   1   4   3   4   0   0   0)

     celldm(1)=   8.803395  celldm(2)=   0.000000  celldm(3)=   1.621262
     celldm(4)=   0.000000  celldm(5)=   0.000000  celldm(6)=   0.000000

     crystal axes: (cart. coord. in units of alat)
               a(1) = (   1.000000   0.000000   0.000000 )
               a(2) = (  -0.500000   0.866025   0.000000 )
               a(3) = (   0.000000   0.000000   1.621262 )

     reciprocal axes: (cart. coord. in units 2 pi/alat)
               b(1) = (  1.000000  0.577350  0.000000 )
               b(2) = (  0.000000  1.154701  0.000000 )
               b(3) = (  0.000000  0.000000  0.616804 )

     PseudoPot. # 1 for Ag read from file:
     /usr/scratch4/magr4985/MG/HTDF/pseudo/SG15/Ag.upf
     MD5 check sum: 2fe2fe769560ddf16f28d1c82859634b
     Pseudo is Norm-conserving, Zval = 19.0
     Generated using ONCVPSP code by D. R. Hamann
     Using radial grid of  602 points,  6 beta functions with:
                l(1) =   0
                l(2) =   0
                l(3) =   1
                l(4) =   1
                l(5) =   2
                l(6) =   2

     PseudoPot. # 2 for I  read from file:
     /usr/scratch4/magr4985/MG/HTDF/pseudo/SG15/I.upf
     MD5 check sum: 8277ef51204d8074ead4596f3b37a2aa
     Pseudo is Norm-conserving, Zval = 17.0
     Generated using ONCVPSP code by D. R. Hamann
     Using radial grid of  602 points,  6 beta functions with:
                l(1) =   0
                l(2) =   0
                l(3) =   1
                l(4) =   1
                l(5) =   2
                l(6) =   2

     atomic species   valence    mass     pseudopotential
        Ag            19.00   107.86820     Ag( 1.00)
        I             17.00   126.90450     I ( 1.00)

      6 Sym. Ops. (no inversion) found

   Cartesian axes

     site n.     atom                  positions (alat units)
         1           Ag  tau(   1) = (   0.5000000   0.2886752   0.0015955  )
         2           Ag  tau(   2) = (   0.0000000   0.5773502   0.8122265  )
         3           I   tau(   3) = (   0.5000000   0.2886752   0.6143218  )
         4           I   tau(   4) = (   0.0000000   0.5773502   1.4249528  )

     number of k points=    72  Gaussian smearing, width (Ry)=  0.0005
                       cart. coord. in units 2pi/alat
        k(    1) = (   0.0000000   0.0000000   0.0000000), wk =   0.0033333
        k(    2) = (   0.0000000   0.0000000   0.1028006), wk =   0.0066667
        k(    3) = (   0.0000000   0.0000000   0.2056012), wk =   0.0066667
        k(    4) = (   0.0000000   0.0000000  -0.3084018), wk =   0.0033333
        k(    5) = (   0.0000000   0.1154701   0.0000000), wk =   0.0200000
        k(    6) = (   0.0000000   0.1154701   0.1028006), wk =   0.0200000
        k(    7) = (   0.0000000   0.1154701   0.2056012), wk =   0.0200000
        k(    8) = (   0.0000000   0.1154701  -0.3084018), wk =   0.0200000
        k(    9) = (   0.0000000   0.2309401   0.0000000), wk =   0.0200000
        k(   10) = (   0.0000000   0.2309401   0.1028006), wk =   0.0200000
        k(   11) = (   0.0000000   0.2309401   0.2056012), wk =   0.0200000
        k(   12) = (   0.0000000   0.2309401  -0.3084018), wk =   0.0200000
        k(   13) = (   0.0000000   0.3464102   0.0000000), wk =   0.0200000
        k(   14) = (   0.0000000   0.3464102   0.1028006), wk =   0.0200000
        k(   15) = (   0.0000000   0.3464102   0.2056012), wk =   0.0200000
        k(   16) = (   0.0000000   0.3464102  -0.3084018), wk =   0.0200000
        k(   17) = (   0.0000000   0.4618802   0.0000000), wk =   0.0200000
        k(   18) = (   0.0000000   0.4618802   0.1028006), wk =   0.0200000
        k(   19) = (   0.0000000   0.4618802   0.2056012), wk =   0.0200000
        k(   20) = (   0.0000000   0.4618802  -0.3084018), wk =   0.0200000
        k(   21) = (   0.0000000  -0.5773503   0.0000000), wk =   0.0100000
        k(   22) = (   0.0000000  -0.5773503   0.1028006), wk =   0.0200000
        k(   23) = (   0.0000000  -0.5773503   0.2056012), wk =   0.0200000
        k(   24) = (   0.0000000  -0.5773503  -0.3084018), wk =   0.0100000
        k(   25) = (   0.1000000   0.1732051   0.0000000), wk =   0.0200000
        k(   26) = (   0.1000000   0.1732051   0.1028006), wk =   0.0400000
        k(   27) = (   0.1000000   0.1732051   0.2056012), wk =   0.0400000
        k(   28) = (   0.1000000   0.1732051  -0.3084018), wk =   0.0200000
        k(   29) = (   0.1000000   0.2886751   0.0000000), wk =   0.0400000
        k(   30) = (   0.1000000   0.2886751   0.1028006), wk =   0.0400000
        k(   31) = (   0.1000000   0.2886751   0.2056012), wk =   0.0400000
        k(   32) = (   0.1000000   0.2886751  -0.3084018), wk =   0.0400000
        k(   33) = (   0.1000000   0.4041452   0.0000000), wk =   0.0400000
        k(   34) = (   0.1000000   0.4041452   0.1028006), wk =   0.0400000
        k(   35) = (   0.1000000   0.4041452   0.2056012), wk =   0.0400000
        k(   36) = (   0.1000000   0.4041452  -0.3084018), wk =   0.0400000
        k(   37) = (   0.1000000   0.5196152   0.0000000), wk =   0.0400000
        k(   38) = (   0.1000000   0.5196152   0.1028006), wk =   0.0400000
        k(   39) = (   0.1000000   0.5196152   0.2056012), wk =   0.0400000
        k(   40) = (   0.1000000   0.5196152  -0.3084018), wk =   0.0400000
        k(   41) = (   0.2000000   0.3464102   0.0000000), wk =   0.0200000
        k(   42) = (   0.2000000   0.3464102   0.1028006), wk =   0.0400000
        k(   43) = (   0.2000000   0.3464102   0.2056012), wk =   0.0400000
        k(   44) = (   0.2000000   0.3464102  -0.3084018), wk =   0.0200000
        k(   45) = (   0.2000000   0.4618802   0.0000000), wk =   0.0400000
        k(   46) = (   0.2000000   0.4618802   0.1028006), wk =   0.0400000
        k(   47) = (   0.2000000   0.4618802   0.2056012), wk =   0.0400000
        k(   48) = (   0.2000000   0.4618802  -0.3084018), wk =   0.0400000
        k(   49) = (   0.2000000   0.5773503   0.0000000), wk =   0.0200000
        k(   50) = (   0.2000000   0.5773503   0.1028006), wk =   0.0400000
        k(   51) = (   0.2000000   0.5773503   0.2056012), wk =   0.0400000
        k(   52) = (   0.2000000   0.5773503  -0.3084018), wk =   0.0200000
        k(   53) = (   0.3000000   0.5196152   0.0000000), wk =   0.0200000
        k(   54) = (   0.3000000   0.5196152   0.1028006), wk =   0.0400000
        k(   55) = (   0.3000000   0.5196152   0.2056012), wk =   0.0400000
        k(   56) = (   0.3000000   0.5196152  -0.3084018), wk =   0.0200000
        k(   57) = (   0.0000000  -0.1154701   0.1028006), wk =   0.0200000
        k(   58) = (   0.0000000  -0.1154701   0.2056012), wk =   0.0200000
        k(   59) = (   0.0000000  -0.2309401   0.1028006), wk =   0.0200000
        k(   60) = (   0.0000000  -0.2309401   0.2056012), wk =   0.0200000
        k(   61) = (   0.0000000  -0.3464102   0.1028006), wk =   0.0200000
        k(   62) = (   0.0000000  -0.3464102   0.2056012), wk =   0.0200000
        k(   63) = (   0.0000000  -0.4618802   0.1028006), wk =   0.0200000
        k(   64) = (   0.0000000  -0.4618802   0.2056012), wk =   0.0200000
        k(   65) = (  -0.1000000  -0.2886751   0.1028006), wk =   0.0400000
        k(   66) = (  -0.1000000  -0.2886751   0.2056012), wk =   0.0400000
        k(   67) = (  -0.1000000  -0.4041452   0.1028006), wk =   0.0400000
        k(   68) = (  -0.1000000  -0.4041452   0.2056012), wk =   0.0400000
        k(   69) = (  -0.1000000  -0.5196152   0.1028006), wk =   0.0400000
        k(   70) = (  -0.1000000  -0.5196152   0.2056012), wk =   0.0400000
        k(   71) = (  -0.2000000  -0.4618802   0.1028006), wk =   0.0400000
        k(   72) = (  -0.2000000  -0.4618802   0.2056012), wk =   0.0400000

     Initial potential from superposition of free atoms

     starting charge      71.8729, renormalised to      72.0000
     Starting wfcs are random

     Self-consistent Calculation

     iteration #  1     ecut=    51.00 Ry     beta= 0.70
     Davidson diagonalization with overlap
     ethr =  1.00E-02,  avg # of iterations =  9.0

     Threshold (ethr) on eigenvalues was too large:
     Diagonalizing with lowered threshold

     Davidson diagonalization with overlap
     ethr =  2.99E-04,  avg # of iterations =  3.3

     total energy              =    -972.62012479 Ry
     estimated scf accuracy    <       0.23903749 Ry

[...]

     total energy              =    -972.72600841 Ry
     estimated scf accuracy    <          5.1E-10 Ry

     iteration # 10     ecut=    51.00 Ry     beta= 0.70
     Davidson diagonalization with overlap
     ethr =  7.15E-13,  avg # of iterations =  2.0

     End of self-consistent calculation

          k = 0.0000 0.0000 0.0000 (  5835 PWs)   bands (ev):

   -83.5006 -83.5006 -46.9810 -46.9810 -46.9809 -46.9809 -46.9777 -46.9776
   -37.6441 -37.6441 -37.6441 -37.6441 -37.6411 -37.6409 -37.6378 -37.6378
   -37.6377 -37.6377  -5.5285  -5.2609   3.0623   3.0623   3.0944   3.1864
     3.1864   3.1999   4.0844   4.0844   4.1748   4.1748   4.2752   6.4037
     6.4037   6.9980   7.0620   7.0620   8.4681   9.6991  12.8927  12.8927
    13.1430  13.7810  13.7810  14.4020  15.7945  15.7945  15.9372  16.8288
    17.1676  17.1676  17.2726  19.5255  20.3194  20.3194  20.7840  21.7121
    21.7121  22.8802  22.8802  23.5108  23.5108  24.8060  25.5655  26.1755
    27.4678  27.8764  27.8764  28.2092  28.2839  29.3008  29.3008  29.9063

[...]

          k = 0.0000-0.4619 0.2056 (  5889 PWs)   bands (ev):

[...]

          k =-0.1000-0.2887 0.1028 (  5893 PWs)   bands (ev):

[...]

          k =-0.2000-0.4619 0.2056 (  5912 PWs)   bands (ev):

   -83.5006 -83.5005 -46.9810 -46.9810 -46.9810 -46.9810 -46.9776 -46.9776
   -37.6442 -37.6442 -37.6441 -37.6441 -37.6409 -37.6409 -37.6378 -37.6378
   -37.6378 -37.6377  -5.2464  -5.2006   3.0103   3.0510   3.2348   3.3117
     3.4147   3.4244   4.0989   4.1212   4.2040   4.2821   4.4370   4.6939
     5.2662   5.6200   5.8530   6.1727  10.7583  11.2230  12.2848  12.5194
    13.0755  13.6755  14.4393  14.8746  16.1353  16.7007  17.9469  18.1946
    18.6718  18.8000  19.3624  19.6906  20.5539  20.7027  21.3757  22.2099
    22.6933  22.9662  23.1107  23.4425  23.7946  24.1558  24.6099  25.0334
    25.4175  25.7822  26.2368  26.7445  26.9379  27.4851  28.0497  28.2533

     the Fermi energy is     7.7946 ev

!    total energy              =    -972.72600841 Ry
     estimated scf accuracy    <          9.7E-11 Ry
     smearing contrib. (-TS)   =      -0.00000000 Ry
     internal energy E=F+TS    =    -972.72600841 Ry

     The total energy is F=E-TS. E is the sum of the following terms:
     one-electron contribution =    -642.62697752 Ry
     hartree contribution      =     325.99296323 Ry
     xc contribution           =     -93.65637803 Ry
     ewald contribution        =    -562.43561608 Ry

     convergence has been achieved in  10 iterations

     Writing all to output data dir out/mp-22894.save/

     General routines

     Parallel routines

   This run was terminated on:   2:28:43   6Dec2023

   JOB DONE.