     Program PWSCF v.7.1 starts on  5Dec2023 at 12: 7:37

     Reading input from pw_mp-856_scf_k3000_E72.in
Warning: card &CELL ignored
Warning: card / ignored

     Current dimensions of program PWSCF are:
     Max number of different atomic species (ntypx) = 10
     Max number of k-points (npk) =  40000
     Max angular momentum in pseudopotentials (lmaxx) =  4

     K-points division:     npool     =       2
     R & G space division:  proc/nbgrp/npool/nimage =      12
     Subspace diagonalization in iterative solution of the eigenvalue problem:
     a serial algorithm will be used

     Using Slab Decomposition

     bravais-lattice index     =            6
     lattice parameter (alat)  =       9.0042  a.u.
     unit-cell volume          =     491.4233 (a.u.)^3
     number of atoms/cell      =            6
     number of atomic types    =            2
     number of electrons       =        52.00
     number of Kohn-Sham states=           52
     kinetic-energy cutoff     =      72.0000  Ry
     charge density cutoff     =     288.0000  Ry
     scf convergence threshold =      1.0E-10
     mixing beta               =       0.7000
     number of iterations used =            8  plain     mixing
     Exchange-correlation= PBE
                           (   1   4   3   4   0   0   0)

     celldm(1)=   9.004200  celldm(2)=   0.000000  celldm(3)=   0.673163
     celldm(4)=   0.000000  celldm(5)=   0.000000  celldm(6)=   0.000000

     crystal axes: (cart. coord. in units of alat)
               a(1) = (   1.000000   0.000000   0.000000 )
               a(2) = (   0.000000   1.000000   0.000000 )
               a(3) = (   0.000000   0.000000   0.673163 )

     reciprocal axes: (cart. coord. in units 2 pi/alat)
               b(1) = (  1.000000  0.000000  0.000000 )
               b(2) = (  0.000000  1.000000  0.000000 )
               b(3) = (  0.000000  0.000000  1.485524 )

     PseudoPot. # 1 for O  read from file:
     /usr/scratch4/magr4985/MG/HTDF/pseudo/SG15/O.upf
     MD5 check sum: e36c48deb68f4e355fffe4602be2c42c
     Pseudo is Norm-conserving, Zval =  6.0
     Generated using ONCVPSP code by D. R. Hamann
     Using radial grid of  602 points,  4 beta functions with:
                l(1) =   0
                l(2) =   0
                l(3) =   1
                l(4) =   1

     PseudoPot. # 2 for Sn read from file:
     /usr/scratch4/magr4985/MG/HTDF/pseudo/SG15/Sn.upf
     MD5 check sum: 6680f7ee4d83b53e0fcd4167fcb72813
     Pseudo is Norm-conserving, Zval = 14.0
     Generated using ONCVPSP code by D. R. Hamann
     Using radial grid of  602 points,  6 beta functions with:
                l(1) =   0
                l(2) =   0
                l(3) =   1
                l(4) =   1
                l(5) =   2
                l(6) =   2

     atomic species   valence    mass     pseudopotential
        O              6.00    15.99940     O ( 1.00)
        Sn            14.00   118.71000     Sn( 1.00)

      8 Sym. Ops., with inversion, found

   Cartesian axes

     site n.     atom                  positions (alat units)
         1           Sn  tau(   1) = (   0.5000000   0.5000000   0.3365816  )
         2           Sn  tau(   2) = (   0.0000000   0.0000000   0.0000000  )
         3           O   tau(   3) = (   0.8059724   0.1940277   0.3365816  )
         4           O   tau(   4) = (   0.1940277   0.8059724   0.3365816  )
         5           O   tau(   5) = (   0.3059723   0.3059723   0.0000000  )
         6           O   tau(   6) = (   0.6940278   0.6940278   0.0000000  )

     number of k points=    78  Gaussian smearing, width (Ry)=  0.0005
                       cart. coord. in units 2pi/alat
        k(    1) = (   0.0000000   0.0000000   0.0000000), wk =   0.0055556
        k(    2) = (   0.0000000   0.0000000   0.1485524), wk =   0.0111111
        k(    3) = (   0.0000000   0.0000000   0.2971048), wk =   0.0111111
        k(    4) = (   0.0000000   0.0000000   0.4456572), wk =   0.0111111
        k(    5) = (   0.0000000   0.0000000   0.5942096), wk =   0.0111111
        k(    6) = (   0.0000000   0.0000000  -0.7427620), wk =   0.0055556
        k(    7) = (   0.0000000   0.1666667   0.0000000), wk =   0.0222222
        k(    8) = (   0.0000000   0.1666667   0.1485524), wk =   0.0444444
        k(    9) = (   0.0000000   0.1666667   0.2971048), wk =   0.0444444
        k(   10) = (   0.0000000   0.1666667   0.4456572), wk =   0.0444444
        k(   11) = (   0.0000000   0.1666667   0.5942096), wk =   0.0444444
        k(   12) = (   0.0000000   0.1666667  -0.7427620), wk =   0.0222222
        k(   13) = (   0.0000000   0.3333333   0.0000000), wk =   0.0222222
        k(   14) = (   0.0000000   0.3333333   0.1485524), wk =   0.0444444
        k(   15) = (   0.0000000   0.3333333   0.2971048), wk =   0.0444444
        k(   16) = (   0.0000000   0.3333333   0.4456572), wk =   0.0444444
        k(   17) = (   0.0000000   0.3333333   0.5942096), wk =   0.0444444
        k(   18) = (   0.0000000   0.3333333  -0.7427620), wk =   0.0222222
        k(   19) = (   0.0000000  -0.5000000   0.0000000), wk =   0.0111111
        k(   20) = (   0.0000000  -0.5000000   0.1485524), wk =   0.0222222
        k(   21) = (   0.0000000  -0.5000000   0.2971048), wk =   0.0222222
        k(   22) = (   0.0000000  -0.5000000   0.4456572), wk =   0.0222222
        k(   23) = (   0.0000000  -0.5000000   0.5942096), wk =   0.0222222
        k(   24) = (   0.0000000  -0.5000000  -0.7427620), wk =   0.0111111
        k(   25) = (   0.1666667   0.1666667   0.0000000), wk =   0.0111111
        k(   26) = (   0.1666667   0.1666667   0.1485524), wk =   0.0222222
        k(   27) = (   0.1666667   0.1666667   0.2971048), wk =   0.0222222
        k(   28) = (   0.1666667   0.1666667   0.4456572), wk =   0.0222222
        k(   29) = (   0.1666667   0.1666667   0.5942096), wk =   0.0222222
        k(   30) = (   0.1666667   0.1666667  -0.7427620), wk =   0.0111111
        k(   31) = (   0.1666667   0.3333333   0.0000000), wk =   0.0222222
        k(   32) = (   0.1666667   0.3333333   0.1485524), wk =   0.0444444
        k(   33) = (   0.1666667   0.3333333   0.2971048), wk =   0.0444444
        k(   34) = (   0.1666667   0.3333333   0.4456572), wk =   0.0444444
        k(   35) = (   0.1666667   0.3333333   0.5942096), wk =   0.0444444
        k(   36) = (   0.1666667   0.3333333  -0.7427620), wk =   0.0222222
        k(   37) = (   0.1666667  -0.5000000   0.0000000), wk =   0.0222222
        k(   38) = (   0.1666667  -0.5000000   0.1485524), wk =   0.0444444
        k(   39) = (   0.1666667  -0.5000000   0.2971048), wk =   0.0444444
        k(   40) = (   0.1666667  -0.5000000   0.4456572), wk =   0.0444444
        k(   41) = (   0.1666667  -0.5000000   0.5942096), wk =   0.0444444
        k(   42) = (   0.1666667  -0.5000000  -0.7427620), wk =   0.0222222
        k(   43) = (   0.3333333   0.3333333   0.0000000), wk =   0.0111111
        k(   44) = (   0.3333333   0.3333333   0.1485524), wk =   0.0222222
        k(   45) = (   0.3333333   0.3333333   0.2971048), wk =   0.0222222
        k(   46) = (   0.3333333   0.3333333   0.4456572), wk =   0.0222222
        k(   47) = (   0.3333333   0.3333333   0.5942096), wk =   0.0222222
        k(   48) = (   0.3333333   0.3333333  -0.7427620), wk =   0.0111111
        k(   49) = (   0.3333333  -0.5000000   0.0000000), wk =   0.0222222
        k(   50) = (   0.3333333  -0.5000000   0.1485524), wk =   0.0444444
        k(   51) = (   0.3333333  -0.5000000   0.2971048), wk =   0.0444444
        k(   52) = (   0.3333333  -0.5000000   0.4456572), wk =   0.0444444
        k(   53) = (   0.3333333  -0.5000000   0.5942096), wk =   0.0444444
        k(   54) = (   0.3333333  -0.5000000  -0.7427620), wk =   0.0222222
        k(   55) = (  -0.5000000  -0.5000000   0.0000000), wk =   0.0055556
        k(   56) = (  -0.5000000  -0.5000000   0.1485524), wk =   0.0111111
        k(   57) = (  -0.5000000  -0.5000000   0.2971048), wk =   0.0111111
        k(   58) = (  -0.5000000  -0.5000000   0.4456572), wk =   0.0111111
        k(   59) = (  -0.5000000  -0.5000000   0.5942096), wk =   0.0111111
        k(   60) = (  -0.5000000  -0.5000000  -0.7427620), wk =   0.0055556
[...]
        k(   64) = (  -0.1666667   0.1666667  -0.4456572), wk =   0.0222222
        k(   65) = (  -0.1666667   0.1666667  -0.5942096), wk =   0.0222222
        k(   66) = (  -0.1666667   0.1666667   0.7427620), wk =   0.0111111
        k(   67) = (  -0.1666667   0.3333333   0.0000000), wk =   0.0222222
        k(   68) = (  -0.1666667   0.3333333  -0.1485524), wk =   0.0444444
        k(   69) = (  -0.1666667   0.3333333  -0.2971048), wk =   0.0444444
        k(   70) = (  -0.1666667   0.3333333  -0.4456572), wk =   0.0444444
        k(   71) = (  -0.1666667   0.3333333  -0.5942096), wk =   0.0444444
        k(   72) = (  -0.1666667   0.3333333   0.7427620), wk =   0.0222222
        k(   73) = (  -0.3333333   0.3333333   0.0000000), wk =   0.0111111
        k(   74) = (  -0.3333333   0.3333333  -0.1485524), wk =   0.0222222
        k(   75) = (  -0.3333333   0.3333333  -0.2971048), wk =   0.0222222
        k(   76) = (  -0.3333333   0.3333333  -0.4456572), wk =   0.0222222
        k(   77) = (  -0.3333333   0.3333333  -0.5942096), wk =   0.0222222
        k(   78) = (  -0.3333333   0.3333333   0.7427620), wk =   0.0111111

     Initial potential from superposition of free atoms

     starting charge      51.8229, renormalised to      52.0000
     Starting wfcs are random

     Self-consistent Calculation

     iteration #  1     ecut=    72.00 Ry     beta= 0.70
     Davidson diagonalization with overlap
     ethr =  1.00E-02,  avg # of iterations =  8.9

     total energy              =    -368.57089079 Ry
     estimated scf accuracy    <       1.45536724 Ry

[...]

     total energy              =    -369.21896292 Ry
     estimated scf accuracy    <          2.7E-10 Ry

     iteration # 10     ecut=    72.00 Ry     beta= 0.70
     Davidson diagonalization with overlap
     ethr =  5.18E-13,  avg # of iterations =  2.4

     End of self-consistent calculation

          k = 0.0000 0.0000 0.0000 (  5073 PWs)   bands (ev):

   -10.5030  -9.7975  -9.5461  -9.5276  -9.5276  -9.4347  -9.3800  -9.3059
    -9.3058  -9.3010  -8.0956  -6.2672  -6.2672  -4.5943   2.6348   6.7342
     6.7342   6.8554   7.7138   8.7763   8.7881   9.4803   9.4803  10.0206
    10.0206  10.7563  11.7790  16.7375  17.0235  17.0235  21.1439  21.1561
    22.7352  22.7352  23.2347  23.3172  25.7051  27.6543  29.6798  30.1471
    30.3113  30.3113  30.7881  30.7881  31.9387  31.9387  32.5176  33.0150
    33.4749  34.3688  37.1673  37.1676

[...]

          k = 0.3333-0.5000-0.7428 (  5076 PWs)   bands (ev):

[...]

          k =-0.5000-0.5000 0.0000 (  5076 PWs)   bands (ev):

[...]

          k =-0.3333 0.3333 0.7428 (  5096 PWs)   bands (ev):

   -10.3879 -10.2511  -9.8178  -9.6012  -9.4145  -9.4105  -9.3186  -9.3168
    -9.3146  -9.3090  -6.5522  -6.2856  -4.9545  -4.7628   2.9886   3.3454
     5.9579   5.9703   6.2737   8.1408   8.1523   9.6291   9.6412   9.6788
     9.7503   9.8614  15.8275  16.0860  19.0291  20.1459  21.2360  21.6758
    21.9453  22.3648  23.3010  23.9775  24.5582  25.0351  25.0777  28.5971
    28.6856  29.5806  30.0752  31.9885  33.6030  34.4272  34.8542  35.3955
    35.4289  36.7035  37.7043  37.7853

     the Fermi energy is    10.8942 ev

!    total energy              =    -369.21896292 Ry
     estimated scf accuracy    <          4.4E-11 Ry
     smearing contrib. (-TS)   =      -0.00000000 Ry
     internal energy E=F+TS    =    -369.21896292 Ry

     The total energy is F=E-TS. E is the sum of the following terms:
     one-electron contribution =     -82.23681900 Ry
     hartree contribution      =      76.84101705 Ry
     xc contribution           =     -58.06002435 Ry
     ewald contribution        =    -305.76313662 Ry

     convergence has been achieved in  10 iterations

     Writing all to output data dir out/mp-856.save/

     General routines

     Parallel routines

   This run was terminated on:  12: 8: 6   5Dec2023

   JOB DONE.