     Program PWSCF v.7.1 starts on  7Dec2023 at 18: 3:15

     Reading input from pw_mp-938_scf_k3000_E53.in
Warning: card &CELL ignored
Warning: card / ignored

     Current dimensions of program PWSCF are:
     Max number of different atomic species (ntypx) = 10
     Max number of k-points (npk) =  40000
     Max angular momentum in pseudopotentials (lmaxx) =  4

     K-points division:     npool     =       2
     R & G space division:  proc/nbgrp/npool/nimage =      12
     Subspace diagonalization in iterative solution of the eigenvalue problem:
     a serial algorithm will be used

     Using Slab Decomposition

     bravais-lattice index     =            5
     lattice parameter (alat)  =       8.3200  a.u.
     unit-cell volume          =     377.2923 (a.u.)^3
     number of atoms/cell      =            2
     number of atomic types    =            2
     number of electrons       =        30.00
     number of Kohn-Sham states=           30
     kinetic-energy cutoff     =      53.0000  Ry
     charge density cutoff     =     212.0000  Ry
     scf convergence threshold =      1.0E-10
     mixing beta               =       0.7000
     number of iterations used =            8  plain     mixing
     Exchange-correlation= PBE
                           (   1   4   3   4   0   0   0)

     celldm(1)=   8.320040  celldm(2)=   0.000000  celldm(3)=   0.000000
     celldm(4)=   0.547379  celldm(5)=   0.000000  celldm(6)=   0.000000

     crystal axes: (cart. coord. in units of alat)
               a(1) = (   0.475721  -0.274658   0.835615 )
               a(2) = (   0.000000   0.549315   0.835615 )
               a(3) = (  -0.475721  -0.274658   0.835615 )

     reciprocal axes: (cart. coord. in units 2 pi/alat)
               b(1) = (  1.051036 -0.606816  0.398908 )
               b(2) = (  0.000000  1.213632  0.398908 )
               b(3) = ( -1.051036 -0.606816  0.398908 )

     PseudoPot. # 1 for Ge read from file:
     /usr/scratch4/magr4985/MG/HTDF/pseudo/SG15/Ge.upf
     MD5 check sum: 9f45083245c564cb2163622d60d05ca9
     Pseudo is Norm-conserving, Zval = 14.0
     Generated using ONCVPSP code by D. R. Hamann
     Using radial grid of  602 points,  6 beta functions with:
                l(1) =   0
                l(2) =   0
                l(3) =   1
                l(4) =   1
                l(5) =   2
                l(6) =   2

     PseudoPot. # 2 for Te read from file:
     /usr/scratch4/magr4985/MG/HTDF/pseudo/SG15/Te.upf
     MD5 check sum: dd4de4dac1e38587f63aaf3700bb29d3
     Pseudo is Norm-conserving, Zval = 16.0
     Generated using ONCVPSP code by D. R. Hamann
     Using radial grid of  602 points,  6 beta functions with:
                l(1) =   0
                l(2) =   0
                l(3) =   1
                l(4) =   1
                l(5) =   2
                l(6) =   2

     atomic species   valence    mass     pseudopotential
        Ge            14.00    72.64000     Ge( 1.00)
        Te            16.00   127.60000     Te( 1.00)

      6 Sym. Ops. (no inversion) found

   Cartesian axes

     site n.     atom                  positions (alat units)
         1           Ge  tau(   1) = (   0.0000000  -0.0000000   0.0194953  )
         2           Te  tau(   2) = (   0.0000000   0.0000000   1.1812836  )

     number of k points=   189  Gaussian smearing, width (Ry)=  0.0005

     Number of k-points >= 100: set verbosity='high' to print them.

     Initial potential from superposition of free atoms

     starting charge      29.9073, renormalised to      30.0000
     Starting wfcs are random

     Self-consistent Calculation

     iteration #  1     ecut=    53.00 Ry     beta= 0.70
     Davidson diagonalization with overlap
     ethr =  1.00E-02,  avg # of iterations =  9.2

     Threshold (ethr) on eigenvalues was too large:
     Diagonalizing with lowered threshold

     Davidson diagonalization with overlap
     ethr =  4.94E-05,  avg # of iterations =  6.5

     total energy              =    -316.36651326 Ry
     estimated scf accuracy    <       0.01090793 Ry

[...]

     total energy              =    -316.36850324 Ry
     estimated scf accuracy    <          2.4E-10 Ry

     iteration #  9     ecut=    53.00 Ry     beta= 0.70
     Davidson diagonalization with overlap
     ethr =  7.87E-13,  avg # of iterations =  2.4

     End of self-consistent calculation

     Number of k-points >= 100: set verbosity='high' to print the bands.

     the Fermi energy is    10.6598 ev

!    total energy              =    -316.36850324 Ry
     estimated scf accuracy    <          7.0E-12 Ry
     smearing contrib. (-TS)   =      -0.00000000 Ry
     internal energy E=F+TS    =    -316.36850324 Ry

     The total energy is F=E-TS. E is the sum of the following terms:
     one-electron contribution =    -137.92147912 Ry
     hartree contribution      =      79.08511151 Ry
     xc contribution           =     -35.88559840 Ry
     ewald contribution        =    -221.64653722 Ry

     convergence has been achieved in   9 iterations

     Writing all to output data dir out/mp-938.save/

     General routines

     Parallel routines

   This run was terminated on:  18: 3:40   7Dec2023

   JOB DONE.