     Program PWSCF v.7.1 starts on 19Nov2023 at 15:11:49

     Reading input from pw_mp-984_scf_k3000_E64.in
Warning: card &CELL ignored
Warning: card / ignored

     Current dimensions of program PWSCF are:
     Max number of different atomic species (ntypx) = 10
     Max number of k-points (npk) =  40000
     Max angular momentum in pseudopotentials (lmaxx) =  4

     R & G space division:  proc/nbgrp/npool/nimage =      24
     Subspace diagonalization in iterative solution of the eigenvalue problem:
     a serial algorithm will be used

     Using Slab Decomposition

     bravais-lattice index     =            4
     lattice parameter (alat)  =       4.7478  a.u.
     unit-cell volume          =     284.3248 (a.u.)^3
     number of atoms/cell      =            4
     number of atomic types    =            2
     number of electrons       =        16.00
     number of Kohn-Sham states=           16
     kinetic-energy cutoff     =      64.0000  Ry
     charge density cutoff     =     256.0000  Ry
     scf convergence threshold =      1.0E-10
     mixing beta               =       0.7000
     number of iterations used =            8  plain     mixing
     Exchange-correlation= PBE
                           (   1   4   3   4   0   0   0)

     celldm(1)=   4.747801  celldm(2)=   0.000000  celldm(3)=   3.067656
     celldm(4)=   0.000000  celldm(5)=   0.000000  celldm(6)=   0.000000

     crystal axes: (cart. coord. in units of alat)
               a(1) = (   1.000000   0.000000   0.000000 )
               a(2) = (  -0.500000   0.866025   0.000000 )
               a(3) = (   0.000000   0.000000   3.067656 )

     reciprocal axes: (cart. coord. in units 2 pi/alat)
               b(1) = (  1.000000  0.577350  0.000000 )
               b(2) = (  0.000000  1.154701  0.000000 )
               b(3) = (  0.000000  0.000000  0.325982 )

     PseudoPot. # 1 for B  read from file:
     /usr/scratch4/magr4985/MG/HTDF/pseudo/SG15/B.upf
     MD5 check sum: eb3cbeacc2d324d57d903df00f564d27
     Pseudo is Norm-conserving, Zval =  3.0
     Generated using ONCVPSP code by D. R. Hamann
     Using radial grid of  602 points,  4 beta functions with:
                l(1) =   0
                l(2) =   0
                l(3) =   1
                l(4) =   1

     PseudoPot. # 2 for N  read from file:
     /usr/scratch4/magr4985/MG/HTDF/pseudo/SG15/N.upf
     MD5 check sum: c233fa8df51455e992258b7c3dee8a9f
     Pseudo is Norm-conserving, Zval =  5.0
     Generated using ONCVPSP code by D. R. Hamann
     Using radial grid of  602 points,  4 beta functions with:
                l(1) =   0
                l(2) =   0
                l(3) =   1
                l(4) =   1

     atomic species   valence    mass     pseudopotential
        B              3.00    10.81100     B ( 1.00)
        N              5.00    14.00670     N ( 1.00)

     12 Sym. Ops., with inversion, found

   Cartesian axes

     site n.     atom                  positions (alat units)
         1           B   tau(   1) = (   0.5000000   0.2886752   0.7669140  )
         2           B   tau(   2) = (   0.0000000   0.5773502   2.3007420  )
         3           N   tau(   3) = (   0.5000000   0.2886752   2.3007420  )
         4           N   tau(   4) = (   0.0000000   0.5773502   0.7669140  )

     number of k points=    88  Gaussian smearing, width (Ry)=  0.0005
                       cart. coord. in units 2pi/alat
        k(    1) = (   0.0000000   0.0000000   0.0000000), wk =   0.0025510
        k(    2) = (   0.0000000   0.0000000   0.0814955), wk =   0.0051020
        k(    3) = (   0.0000000   0.0000000  -0.1629909), wk =   0.0025510
        k(    4) = (   0.0000000   0.0824786   0.0000000), wk =   0.0153061
        k(    5) = (   0.0000000   0.0824786   0.0814955), wk =   0.0153061
        k(    6) = (   0.0000000   0.0824786  -0.1629909), wk =   0.0153061
        k(    7) = (   0.0000000   0.1649572   0.0000000), wk =   0.0153061
        k(    8) = (   0.0000000   0.1649572   0.0814955), wk =   0.0153061
        k(    9) = (   0.0000000   0.1649572  -0.1629909), wk =   0.0153061
        k(   10) = (   0.0000000   0.2474358   0.0000000), wk =   0.0153061
        k(   11) = (   0.0000000   0.2474358   0.0814955), wk =   0.0153061
        k(   12) = (   0.0000000   0.2474358  -0.1629909), wk =   0.0153061
        k(   13) = (   0.0000000   0.3299144   0.0000000), wk =   0.0153061
        k(   14) = (   0.0000000   0.3299144   0.0814955), wk =   0.0153061
        k(   15) = (   0.0000000   0.3299144  -0.1629909), wk =   0.0153061
        k(   16) = (   0.0000000   0.4123930   0.0000000), wk =   0.0153061
        k(   17) = (   0.0000000   0.4123930   0.0814955), wk =   0.0153061
        k(   18) = (   0.0000000   0.4123930  -0.1629909), wk =   0.0153061
        k(   19) = (   0.0000000   0.4948717   0.0000000), wk =   0.0153061
        k(   20) = (   0.0000000   0.4948717   0.0814955), wk =   0.0153061
        k(   21) = (   0.0000000   0.4948717  -0.1629909), wk =   0.0153061
        k(   22) = (   0.0000000  -0.5773503   0.0000000), wk =   0.0076531
        k(   23) = (   0.0000000  -0.5773503   0.0814955), wk =   0.0153061
        k(   24) = (   0.0000000  -0.5773503  -0.1629909), wk =   0.0076531
        k(   25) = (   0.0714286   0.1237179   0.0000000), wk =   0.0153061
        k(   26) = (   0.0714286   0.1237179   0.0814955), wk =   0.0306122
        k(   27) = (   0.0714286   0.1237179  -0.1629909), wk =   0.0153061
        k(   28) = (   0.0714286   0.2061965   0.0000000), wk =   0.0306122
        k(   29) = (   0.0714286   0.2061965   0.0814955), wk =   0.0306122
        k(   30) = (   0.0714286   0.2061965  -0.1629909), wk =   0.0306122
        k(   31) = (   0.0714286   0.2886751   0.0000000), wk =   0.0306122
        k(   32) = (   0.0714286   0.2886751   0.0814955), wk =   0.0306122
        k(   33) = (   0.0714286   0.2886751  -0.1629909), wk =   0.0306122
        k(   34) = (   0.0714286   0.3711537   0.0000000), wk =   0.0306122
        k(   35) = (   0.0714286   0.3711537   0.0814955), wk =   0.0306122
        k(   36) = (   0.0714286   0.3711537  -0.1629909), wk =   0.0306122
        k(   37) = (   0.0714286   0.4536324   0.0000000), wk =   0.0306122
        k(   38) = (   0.0714286   0.4536324   0.0814955), wk =   0.0306122
        k(   39) = (   0.0714286   0.4536324  -0.1629909), wk =   0.0306122
        k(   40) = (   0.0714286   0.5361110   0.0000000), wk =   0.0306122
        k(   41) = (   0.0714286   0.5361110   0.0814955), wk =   0.0306122
        k(   42) = (   0.0714286   0.5361110  -0.1629909), wk =   0.0306122
        k(   43) = (   0.1428571   0.2474358   0.0000000), wk =   0.0153061
        k(   44) = (   0.1428571   0.2474358   0.0814955), wk =   0.0306122
        k(   45) = (   0.1428571   0.2474358  -0.1629909), wk =   0.0153061
        k(   46) = (   0.1428571   0.3299144   0.0000000), wk =   0.0306122
        k(   47) = (   0.1428571   0.3299144   0.0814955), wk =   0.0306122
        k(   48) = (   0.1428571   0.3299144  -0.1629909), wk =   0.0306122
        k(   49) = (   0.1428571   0.4123930   0.0000000), wk =   0.0306122
        k(   50) = (   0.1428571   0.4123930   0.0814955), wk =   0.0306122
        k(   51) = (   0.1428571   0.4123930  -0.1629909), wk =   0.0306122
        k(   52) = (   0.1428571   0.4948717   0.0000000), wk =   0.0306122
        k(   53) = (   0.1428571   0.4948717   0.0814955), wk =   0.0306122
        k(   54) = (   0.1428571   0.4948717  -0.1629909), wk =   0.0306122
        k(   55) = (   0.1428571   0.5773503   0.0000000), wk =   0.0153061
        k(   56) = (   0.1428571   0.5773503   0.0814955), wk =   0.0306122
        k(   57) = (   0.1428571   0.5773503  -0.1629909), wk =   0.0153061
        k(   58) = (   0.2142857   0.3711537   0.0000000), wk =   0.0153061
        k(   59) = (   0.2142857   0.3711537   0.0814955), wk =   0.0306122
        k(   60) = (   0.2142857   0.3711537  -0.1629909), wk =   0.0153061
[...]
        k(   74) = (   0.0000000   0.1649572  -0.0814955), wk =   0.0153061
        k(   75) = (   0.0000000   0.2474358  -0.0814955), wk =   0.0153061
        k(   76) = (   0.0000000   0.3299144  -0.0814955), wk =   0.0153061
        k(   77) = (   0.0000000   0.4123930  -0.0814955), wk =   0.0153061
        k(   78) = (   0.0000000   0.4948717  -0.0814955), wk =   0.0153061
        k(   79) = (  -0.0714286   0.2061965  -0.0814955), wk =   0.0306122
        k(   80) = (  -0.0714286   0.2886751  -0.0814955), wk =   0.0306122
        k(   81) = (  -0.0714286   0.3711537  -0.0814955), wk =   0.0306122
        k(   82) = (  -0.0714286   0.4536324  -0.0814955), wk =   0.0306122
        k(   83) = (  -0.0714286   0.5361110  -0.0814955), wk =   0.0306122
        k(   84) = (  -0.1428571   0.3299144  -0.0814955), wk =   0.0306122
        k(   85) = (  -0.1428571   0.4123930  -0.0814955), wk =   0.0306122
        k(   86) = (  -0.1428571   0.4948717  -0.0814955), wk =   0.0306122
        k(   87) = (  -0.2142857   0.4536324  -0.0814955), wk =   0.0306122
        k(   88) = (  -0.2142857   0.5361110  -0.0814955), wk =   0.0306122

     Initial potential from superposition of free atoms

     starting charge      15.9606, renormalised to      16.0000
     Starting wfcs are random

     Self-consistent Calculation

     iteration #  1     ecut=    64.00 Ry     beta= 0.70
     Davidson diagonalization with overlap
     ethr =  1.00E-02,  avg # of iterations = 10.2

     total energy              =     -51.32128786 Ry
     estimated scf accuracy    <       0.66841211 Ry

[...]

     total energy              =     -51.51929414 Ry
     estimated scf accuracy    <          1.3E-10 Ry

     iteration # 10     ecut=    64.00 Ry     beta= 0.70
     Davidson diagonalization with overlap
     ethr =  8.25E-13,  avg # of iterations =  3.6

     End of self-consistent calculation

          k = 0.0000 0.0000 0.0000 (  2437 PWs)   bands (ev):

   -14.3952 -14.3093  -2.4324  -1.4659   1.8414   1.8414   1.8473   1.8473
     7.8575  11.7877  14.1956  14.7260  14.7260  14.7598  14.7598  15.8109

[...]

          k = 0.0000 0.4949-0.0815 (  2465 PWs)   bands (ev):

[...]

          k =-0.0714 0.2062-0.0815 (  2448 PWs)   bands (ev):

[...]

          k =-0.2143 0.5361-0.0815 (  2477 PWs)   bands (ev):

   -11.0056 -10.9922  -5.0524  -5.0350  -2.8652  -2.8539   2.6572   2.8959
     8.0578   8.2610  14.9284  15.4687  16.0868  16.2858  18.1633  19.0381

     the Fermi energy is     3.3721 ev

!    total energy              =     -51.51929414 Ry
     estimated scf accuracy    <          1.9E-11 Ry
     smearing contrib. (-TS)   =      -0.00000000 Ry
     internal energy E=F+TS    =     -51.51929414 Ry

     The total energy is F=E-TS. E is the sum of the following terms:
     one-electron contribution =     -28.49822227 Ry
     hartree contribution      =      21.54405800 Ry
     xc contribution           =     -14.73253576 Ry
     ewald contribution        =     -29.83259412 Ry

     convergence has been achieved in  10 iterations

     Writing all to output data dir out/mp-984.save/

     General routines

     Parallel routines

   This run was terminated on:  15:11:59  19Nov2023

   JOB DONE.