     Program PWSCF v.7.1 starts on  5Dec2023 at  2:44: 2

     Reading input from pw_mp-804_scf_k3000_E67.in
Warning: card &CELL ignored
Warning: card / ignored

     Current dimensions of program PWSCF are:
     Max number of different atomic species (ntypx) = 10
     Max number of k-points (npk) =  40000
     Max angular momentum in pseudopotentials (lmaxx) =  4

     R & G space division:  proc/nbgrp/npool/nimage =      24
     Subspace diagonalization in iterative solution of the eigenvalue problem:
     a serial algorithm will be used

     Using Slab Decomposition

     bravais-lattice index     =            4
     lattice parameter (alat)  =       6.0262  a.u.
     unit-cell volume          =     308.5900 (a.u.)^3
     number of atoms/cell      =            4
     number of atomic types    =            2
     number of electrons       =        36.00
     number of Kohn-Sham states=           36
     kinetic-energy cutoff     =      67.0000  Ry
     charge density cutoff     =     268.0000  Ry
     scf convergence threshold =      1.0E-10
     mixing beta               =       0.7000
     number of iterations used =            8  plain     mixing
     Exchange-correlation= PBE
                           (   1   4   3   4   0   0   0)

     celldm(1)=   6.026205  celldm(2)=   0.000000  celldm(3)=   1.628244
     celldm(4)=   0.000000  celldm(5)=   0.000000  celldm(6)=   0.000000

     crystal axes: (cart. coord. in units of alat)
               a(1) = (   1.000000   0.000000   0.000000 )
               a(2) = (  -0.500000   0.866025   0.000000 )
               a(3) = (   0.000000   0.000000   1.628244 )

     reciprocal axes: (cart. coord. in units 2 pi/alat)
               b(1) = (  1.000000  0.577350  0.000000 )
               b(2) = (  0.000000  1.154701  0.000000 )
               b(3) = (  0.000000  0.000000  0.614159 )

     PseudoPot. # 1 for Ga read from file:
     /usr/scratch4/magr4985/MG/HTDF/pseudo/SG15/Ga.upf
     MD5 check sum: 9961a622ff199abf6dfec9a0a10b8555
     Pseudo is Norm-conserving, Zval = 13.0
     Generated using ONCVPSP code by D. R. Hamann
     Using radial grid of  602 points,  6 beta functions with:
                l(1) =   0
                l(2) =   0
                l(3) =   1
                l(4) =   1
                l(5) =   2
                l(6) =   2

     PseudoPot. # 2 for N  read from file:
     /usr/scratch4/magr4985/MG/HTDF/pseudo/SG15/N.upf
     MD5 check sum: c233fa8df51455e992258b7c3dee8a9f
     Pseudo is Norm-conserving, Zval =  5.0
     Generated using ONCVPSP code by D. R. Hamann
     Using radial grid of  602 points,  4 beta functions with:
                l(1) =   0
                l(2) =   0
                l(3) =   1
                l(4) =   1

     atomic species   valence    mass     pseudopotential
        Ga            13.00    69.72300     Ga( 1.00)
        N              5.00    14.00670     N ( 1.00)

      6 Sym. Ops. (no inversion) found

   Cartesian axes

     site n.     atom                  positions (alat units)
         1           Ga  tau(   1) = (   0.0000000   0.5773502   0.8126302  )
         2           Ga  tau(   2) = (   0.5000000   0.2886752   1.6267523  )
         3           N   tau(   3) = (   0.0000000   0.5773502   1.4262057  )
         4           N   tau(   4) = (   0.5000000   0.2886752   0.6120835  )

     number of k points=    72  Gaussian smearing, width (Ry)=  0.0005
                       cart. coord. in units 2pi/alat
        k(    1) = (   0.0000000   0.0000000   0.0000000), wk =   0.0033333
        k(    2) = (   0.0000000   0.0000000   0.1023598), wk =   0.0066667
        k(    3) = (   0.0000000   0.0000000   0.2047195), wk =   0.0066667
        k(    4) = (   0.0000000   0.0000000  -0.3070793), wk =   0.0033333
        k(    5) = (   0.0000000   0.1154701   0.0000000), wk =   0.0200000
        k(    6) = (   0.0000000   0.1154701   0.1023598), wk =   0.0200000
        k(    7) = (   0.0000000   0.1154701   0.2047195), wk =   0.0200000
        k(    8) = (   0.0000000   0.1154701  -0.3070793), wk =   0.0200000
        k(    9) = (   0.0000000   0.2309401   0.0000000), wk =   0.0200000
        k(   10) = (   0.0000000   0.2309401   0.1023598), wk =   0.0200000
        k(   11) = (   0.0000000   0.2309401   0.2047195), wk =   0.0200000
        k(   12) = (   0.0000000   0.2309401  -0.3070793), wk =   0.0200000
        k(   13) = (   0.0000000   0.3464102   0.0000000), wk =   0.0200000
        k(   14) = (   0.0000000   0.3464102   0.1023598), wk =   0.0200000
        k(   15) = (   0.0000000   0.3464102   0.2047195), wk =   0.0200000
        k(   16) = (   0.0000000   0.3464102  -0.3070793), wk =   0.0200000
        k(   17) = (   0.0000000   0.4618802   0.0000000), wk =   0.0200000
        k(   18) = (   0.0000000   0.4618802   0.1023598), wk =   0.0200000
        k(   19) = (   0.0000000   0.4618802   0.2047195), wk =   0.0200000
        k(   20) = (   0.0000000   0.4618802  -0.3070793), wk =   0.0200000
        k(   21) = (   0.0000000  -0.5773503   0.0000000), wk =   0.0100000
        k(   22) = (   0.0000000  -0.5773503   0.1023598), wk =   0.0200000
        k(   23) = (   0.0000000  -0.5773503   0.2047195), wk =   0.0200000
        k(   24) = (   0.0000000  -0.5773503  -0.3070793), wk =   0.0100000
        k(   25) = (   0.1000000   0.1732051   0.0000000), wk =   0.0200000
        k(   26) = (   0.1000000   0.1732051   0.1023598), wk =   0.0400000
        k(   27) = (   0.1000000   0.1732051   0.2047195), wk =   0.0400000
        k(   28) = (   0.1000000   0.1732051  -0.3070793), wk =   0.0200000
        k(   29) = (   0.1000000   0.2886751   0.0000000), wk =   0.0400000
        k(   30) = (   0.1000000   0.2886751   0.1023598), wk =   0.0400000
        k(   31) = (   0.1000000   0.2886751   0.2047195), wk =   0.0400000
        k(   32) = (   0.1000000   0.2886751  -0.3070793), wk =   0.0400000
        k(   33) = (   0.1000000   0.4041452   0.0000000), wk =   0.0400000
        k(   34) = (   0.1000000   0.4041452   0.1023598), wk =   0.0400000
        k(   35) = (   0.1000000   0.4041452   0.2047195), wk =   0.0400000
        k(   36) = (   0.1000000   0.4041452  -0.3070793), wk =   0.0400000
        k(   37) = (   0.1000000   0.5196152   0.0000000), wk =   0.0400000
        k(   38) = (   0.1000000   0.5196152   0.1023598), wk =   0.0400000
        k(   39) = (   0.1000000   0.5196152   0.2047195), wk =   0.0400000
        k(   40) = (   0.1000000   0.5196152  -0.3070793), wk =   0.0400000
        k(   41) = (   0.2000000   0.3464102   0.0000000), wk =   0.0200000
        k(   42) = (   0.2000000   0.3464102   0.1023598), wk =   0.0400000
        k(   43) = (   0.2000000   0.3464102   0.2047195), wk =   0.0400000
        k(   44) = (   0.2000000   0.3464102  -0.3070793), wk =   0.0200000
        k(   45) = (   0.2000000   0.4618802   0.0000000), wk =   0.0400000
        k(   46) = (   0.2000000   0.4618802   0.1023598), wk =   0.0400000
        k(   47) = (   0.2000000   0.4618802   0.2047195), wk =   0.0400000
        k(   48) = (   0.2000000   0.4618802  -0.3070793), wk =   0.0400000
        k(   49) = (   0.2000000   0.5773503   0.0000000), wk =   0.0200000
        k(   50) = (   0.2000000   0.5773503   0.1023598), wk =   0.0400000
        k(   51) = (   0.2000000   0.5773503   0.2047195), wk =   0.0400000
        k(   52) = (   0.2000000   0.5773503  -0.3070793), wk =   0.0200000
        k(   53) = (   0.3000000   0.5196152   0.0000000), wk =   0.0200000
        k(   54) = (   0.3000000   0.5196152   0.1023598), wk =   0.0400000
        k(   55) = (   0.3000000   0.5196152   0.2047195), wk =   0.0400000
        k(   56) = (   0.3000000   0.5196152  -0.3070793), wk =   0.0200000
        k(   57) = (   0.0000000  -0.1154701   0.1023598), wk =   0.0200000
        k(   58) = (   0.0000000  -0.1154701   0.2047195), wk =   0.0200000
        k(   59) = (   0.0000000  -0.2309401   0.1023598), wk =   0.0200000
        k(   60) = (   0.0000000  -0.2309401   0.2047195), wk =   0.0200000
        k(   61) = (   0.0000000  -0.3464102   0.1023598), wk =   0.0200000
        k(   62) = (   0.0000000  -0.3464102   0.2047195), wk =   0.0200000
        k(   63) = (   0.0000000  -0.4618802   0.1023598), wk =   0.0200000
        k(   64) = (   0.0000000  -0.4618802   0.2047195), wk =   0.0200000
        k(   65) = (  -0.1000000  -0.2886751   0.1023598), wk =   0.0400000
        k(   66) = (  -0.1000000  -0.2886751   0.2047195), wk =   0.0400000
        k(   67) = (  -0.1000000  -0.4041452   0.1023598), wk =   0.0400000
        k(   68) = (  -0.1000000  -0.4041452   0.2047195), wk =   0.0400000
        k(   69) = (  -0.1000000  -0.5196152   0.1023598), wk =   0.0400000
        k(   70) = (  -0.1000000  -0.5196152   0.2047195), wk =   0.0400000
        k(   71) = (  -0.2000000  -0.4618802   0.1023598), wk =   0.0400000
        k(   72) = (  -0.2000000  -0.4618802   0.2047195), wk =   0.0400000

     Initial potential from superposition of free atoms

     starting charge      35.8431, renormalised to      36.0000
     Starting wfcs are random

     Self-consistent Calculation

     iteration #  1     ecut=    67.00 Ry     beta= 0.70
     Davidson diagonalization with overlap
     ethr =  1.00E-02,  avg # of iterations = 10.2

     total energy              =    -302.02828560 Ry
     estimated scf accuracy    <       1.04205381 Ry

[...]

     total energy              =    -302.52133212 Ry
     estimated scf accuracy    <          1.9E-09 Ry

     iteration # 11     ecut=    67.00 Ry     beta= 0.70
     Davidson diagonalization with overlap
     ethr =  5.24E-12,  avg # of iterations =  2.0

     End of self-consistent calculation

          k = 0.0000 0.0000 0.0000 (  2863 PWs)   bands (ev):

    -5.2235  -4.3592  -2.8312  -2.8222  -2.8222  -2.7634  -2.7634  -2.5745
    -2.5745  -2.4782  -2.4782  -1.1892   3.6871   9.6800   9.6800  10.6728
    10.7058  10.7058  12.6640  14.9947  19.9171  20.6391  20.6391  21.4802
    22.4462  22.4462  25.3439  26.3950  26.3950  28.6459  28.6459  28.9008
    28.9607  32.4135  34.8858  34.8859

[...]

          k = 0.0000-0.4619 0.2047 (  2857 PWs)   bands (ev):

[...]

          k =-0.1000-0.2887 0.1024 (  2844 PWs)   bands (ev):

[...]

          k =-0.2000-0.4619 0.2047 (  2857 PWs)   bands (ev):

    -4.2792  -4.2105  -2.7464  -2.7252  -2.6885  -2.6374  -2.5876  -2.5654
    -2.5108  -2.4963  -1.3049  -0.8177   4.5633   5.0850   7.0014   7.9872
     8.2639   9.3658  16.2170  16.9913  18.3320  18.9669  19.6723  20.1036
    22.6813  23.8826  25.2607  26.3872  29.2126  29.9891  32.5419  32.7819
    34.8691  35.1822  36.6936  37.1356

     the Fermi energy is    10.8388 ev

!    total energy              =    -302.52133212 Ry
     estimated scf accuracy    <          2.7E-11 Ry
     smearing contrib. (-TS)   =      -0.00000000 Ry
     internal energy E=F+TS    =    -302.52133212 Ry

     The total energy is F=E-TS. E is the sum of the following terms:
     one-electron contribution =    -107.90089954 Ry
     hartree contribution      =      85.11368560 Ry
     xc contribution           =     -46.55928354 Ry
     ewald contribution        =    -233.17483464 Ry

     convergence has been achieved in  11 iterations

     Writing all to output data dir out/mp-804.save/

     General routines

     Parallel routines

   This run was terminated on:   2:44:27   5Dec2023

   JOB DONE.