     Program PWSCF v.7.1 starts on  6Dec2023 at 19:20:44

     Reading input from pw_mp-2455_scf_k3000_E52.in
Warning: card &CELL ignored
Warning: card / ignored

     Current dimensions of program PWSCF are:
     Max number of different atomic species (ntypx) = 10
     Max number of k-points (npk) =  40000
     Max angular momentum in pseudopotentials (lmaxx) =  4

     R & G space division:  proc/nbgrp/npool/nimage =      24
     Subspace diagonalization in iterative solution of the eigenvalue problem:
     a serial algorithm will be used

     Using Slab Decomposition

     bravais-lattice index     =            8
     lattice parameter (alat)  =       5.7510  a.u.
     unit-cell volume          =     691.1208 (a.u.)^3
     number of atoms/cell      =            6
     number of atomic types    =            2
     number of electrons       =        52.00
     number of Kohn-Sham states=           52
     kinetic-energy cutoff     =      52.0000  Ry
     charge density cutoff     =     208.0000  Ry
     scf convergence threshold =      1.0E-10
     mixing beta               =       0.7000
     number of iterations used =            8  plain     mixing
     Exchange-correlation= PBE
                           (   1   4   3   4   0   0   0)

     celldm(1)=   5.750963  celldm(2)=   1.780735  celldm(3)=   2.040484
     celldm(4)=   0.000000  celldm(5)=   0.000000  celldm(6)=   0.000000

     crystal axes: (cart. coord. in units of alat)
               a(1) = (   1.000000   0.000000   0.000000 )
               a(2) = (   0.000000   1.780735   0.000000 )
               a(3) = (   0.000000   0.000000   2.040484 )

     reciprocal axes: (cart. coord. in units 2 pi/alat)
               b(1) = (  1.000000  0.000000  0.000000 )
               b(2) = (  0.000000  0.561566  0.000000 )
               b(3) = (  0.000000  0.000000  0.490080 )

     PseudoPot. # 1 for As read from file:
     /usr/scratch4/magr4985/MG/HTDF/pseudo/SG15/As.upf
     MD5 check sum: a2ff92a4799c87c945fff9e6739df4dd
     Pseudo is Norm-conserving, Zval =  5.0
     Generated using ONCVPSP code by D. R. Hamann
     Using radial grid of  602 points,  6 beta functions with:
                l(1) =   0
                l(2) =   0
                l(3) =   1
                l(4) =   1
                l(5) =   2
                l(6) =   2

     PseudoPot. # 2 for Os read from file:
     /usr/scratch4/magr4985/MG/HTDF/pseudo/SG15/Os.upf
     MD5 check sum: 95cd203db9fc26cc83e0e7c2505c7528
     Pseudo is Norm-conserving, Zval = 16.0
     Generated using ONCVPSP code by D. R. Hamann
     Using radial grid of  602 points,  8 beta functions with:
                l(1) =   0
                l(2) =   0
                l(3) =   1
                l(4) =   1
                l(5) =   2
                l(6) =   2
                l(7) =   3
                l(8) =   3

     atomic species   valence    mass     pseudopotential
        As             5.00    74.92160     As( 1.00)
        Os            16.00   190.23000     Os( 1.00)

      4 Sym. Ops., with inversion, found

   Cartesian axes

     site n.     atom                  positions (alat units)
         1           As  tau(   1) = (   0.5000000   0.5860498   1.7674369  )
         2           As  tau(   2) = (   0.5000000   1.1946849   0.2730470  )
         3           As  tau(   3) = (   0.0000000   0.3043176   0.7471950  )
         4           As  tau(   4) = (   0.0000000   1.4764171   1.2932889  )
         5           Os  tau(   5) = (   0.5000000   0.8903674   1.0202419  )
         6           Os  tau(   6) = (   0.0000000   0.0000000   0.0000000  )

     number of k points=   140  Gaussian smearing, width (Ry)=  0.0005

     Number of k-points >= 100: set verbosity='high' to print them.

     Initial potential from superposition of free atoms

     starting charge      51.7909, renormalised to      52.0000
     Starting wfcs are random

     Self-consistent Calculation

     iteration #  1     ecut=    52.00 Ry     beta= 0.70
     Davidson diagonalization with overlap
     ethr =  1.00E-02,  avg # of iterations =  9.2

     Threshold (ethr) on eigenvalues was too large:
     Diagonalizing with lowered threshold

     Davidson diagonalization with overlap
     ethr =  2.79E-04,  avg # of iterations =  1.9

     total energy              =    -418.89921062 Ry
     estimated scf accuracy    <       0.14353557 Ry

[...]

     total energy              =    -418.92733642 Ry
     estimated scf accuracy    <          1.6E-10 Ry

     iteration # 10     ecut=    52.00 Ry     beta= 0.70
     Davidson diagonalization with overlap
     ethr =  3.17E-13,  avg # of iterations =  2.0

     End of self-consistent calculation

     Number of k-points >= 100: set verbosity='high' to print the bands.

     the Fermi energy is    13.4640 ev

!    total energy              =    -418.92733642 Ry
     estimated scf accuracy    <          3.8E-11 Ry
     smearing contrib. (-TS)   =      -0.00000000 Ry
     internal energy E=F+TS    =    -418.92733642 Ry

     The total energy is F=E-TS. E is the sum of the following terms:
     one-electron contribution =    -165.97104530 Ry
     hartree contribution      =     102.50229540 Ry
     xc contribution           =     -51.14764735 Ry
     ewald contribution        =    -304.31093918 Ry

     convergence has been achieved in  10 iterations

     Writing all to output data dir out/mp-2455.save/

     General routines

     Parallel routines

   This run was terminated on:  19:22:32   6Dec2023

   JOB DONE.