     Program PWSCF v.7.1 starts on 19Nov2023 at 16:56:32

     Reading input from pw_mp-2133_scf_k3000_E80.in
Warning: card &CELL ignored
Warning: card / ignored

     Current dimensions of program PWSCF are:
     Max number of different atomic species (ntypx) = 10
     Max number of k-points (npk) =  40000
     Max angular momentum in pseudopotentials (lmaxx) =  4

     R & G space division:  proc/nbgrp/npool/nimage =      24
     Subspace diagonalization in iterative solution of the eigenvalue problem:
     a serial algorithm will be used

     Using Slab Decomposition

     bravais-lattice index     =            4
     lattice parameter (alat)  =       6.1177  a.u.
     unit-cell volume          =     319.8517 (a.u.)^3
     number of atoms/cell      =            4
     number of atomic types    =            2
     number of electrons       =        52.00
     number of Kohn-Sham states=           52
     kinetic-energy cutoff     =      80.0000  Ry
     charge density cutoff     =     320.0000  Ry
     scf convergence threshold =      1.0E-10
     mixing beta               =       0.7000
     number of iterations used =            8  plain     mixing
     Exchange-correlation= PBE
                           (   1   4   3   4   0   0   0)

     celldm(1)=   6.117706  celldm(2)=   0.000000  celldm(3)=   1.613066
     celldm(4)=   0.000000  celldm(5)=   0.000000  celldm(6)=   0.000000

     crystal axes: (cart. coord. in units of alat)
               a(1) = (   1.000000   0.000000   0.000000 )
               a(2) = (  -0.500000   0.866025   0.000000 )
               a(3) = (   0.000000   0.000000   1.613066 )

     reciprocal axes: (cart. coord. in units 2 pi/alat)
               b(1) = (  1.000000  0.577350  0.000000 )
               b(2) = (  0.000000  1.154701  0.000000 )
               b(3) = (  0.000000  0.000000  0.619937 )

     PseudoPot. # 1 for O  read from file:
     /usr/scratch4/magr4985/MG/HTDF/pseudo/SG15/O.upf
     MD5 check sum: e36c48deb68f4e355fffe4602be2c42c
     Pseudo is Norm-conserving, Zval =  6.0
     Generated using ONCVPSP code by D. R. Hamann
     Using radial grid of  602 points,  4 beta functions with:
                l(1) =   0
                l(2) =   0
                l(3) =   1
                l(4) =   1

     PseudoPot. # 2 for Zn read from file:
     /usr/scratch4/magr4985/MG/HTDF/pseudo/SG15/Zn.upf
     MD5 check sum: 732f41c0cd6489a4b50a33b4ec99a2d3
     Pseudo is Norm-conserving, Zval = 20.0
     Generated using ONCVPSP code by D. R. Hamann
     Using radial grid of  602 points,  6 beta functions with:
                l(1) =   0
                l(2) =   0
                l(3) =   1
                l(4) =   1
                l(5) =   2
                l(6) =   2

     atomic species   valence    mass     pseudopotential
        O              6.00    15.99940     O ( 1.00)
        Zn            20.00    65.40900     Zn( 1.00)

      6 Sym. Ops. (no inversion) found

   Cartesian axes

     site n.     atom                  positions (alat units)
         1           Zn  tau(   1) = (   0.0000000   0.5773502   0.8074876  )
         2           Zn  tau(   2) = (   0.5000000   0.2886752   0.0009545  )
         3           O   tau(   3) = (   0.0000000   0.5773502   1.4190439  )
         4           O   tau(   4) = (   0.5000000   0.2886752   0.6125108  )

     number of k points=    72  Gaussian smearing, width (Ry)=  0.0005
                       cart. coord. in units 2pi/alat
        k(    1) = (   0.0000000   0.0000000   0.0000000), wk =   0.0033333
        k(    2) = (   0.0000000   0.0000000   0.1033229), wk =   0.0066667
        k(    3) = (   0.0000000   0.0000000   0.2066458), wk =   0.0066667
        k(    4) = (   0.0000000   0.0000000  -0.3099687), wk =   0.0033333
        k(    5) = (   0.0000000   0.1154701   0.0000000), wk =   0.0200000
        k(    6) = (   0.0000000   0.1154701   0.1033229), wk =   0.0200000
        k(    7) = (   0.0000000   0.1154701   0.2066458), wk =   0.0200000
        k(    8) = (   0.0000000   0.1154701  -0.3099687), wk =   0.0200000
        k(    9) = (   0.0000000   0.2309401   0.0000000), wk =   0.0200000
        k(   10) = (   0.0000000   0.2309401   0.1033229), wk =   0.0200000
        k(   11) = (   0.0000000   0.2309401   0.2066458), wk =   0.0200000
        k(   12) = (   0.0000000   0.2309401  -0.3099687), wk =   0.0200000
        k(   13) = (   0.0000000   0.3464102   0.0000000), wk =   0.0200000
        k(   14) = (   0.0000000   0.3464102   0.1033229), wk =   0.0200000
        k(   15) = (   0.0000000   0.3464102   0.2066458), wk =   0.0200000
        k(   16) = (   0.0000000   0.3464102  -0.3099687), wk =   0.0200000
        k(   17) = (   0.0000000   0.4618802   0.0000000), wk =   0.0200000
        k(   18) = (   0.0000000   0.4618802   0.1033229), wk =   0.0200000
        k(   19) = (   0.0000000   0.4618802   0.2066458), wk =   0.0200000
        k(   20) = (   0.0000000   0.4618802  -0.3099687), wk =   0.0200000
        k(   21) = (   0.0000000  -0.5773503   0.0000000), wk =   0.0100000
        k(   22) = (   0.0000000  -0.5773503   0.1033229), wk =   0.0200000
        k(   23) = (   0.0000000  -0.5773503   0.2066458), wk =   0.0200000
        k(   24) = (   0.0000000  -0.5773503  -0.3099687), wk =   0.0100000
        k(   25) = (   0.1000000   0.1732051   0.0000000), wk =   0.0200000
        k(   26) = (   0.1000000   0.1732051   0.1033229), wk =   0.0400000
        k(   27) = (   0.1000000   0.1732051   0.2066458), wk =   0.0400000
        k(   28) = (   0.1000000   0.1732051  -0.3099687), wk =   0.0200000
        k(   29) = (   0.1000000   0.2886751   0.0000000), wk =   0.0400000
        k(   30) = (   0.1000000   0.2886751   0.1033229), wk =   0.0400000
        k(   31) = (   0.1000000   0.2886751   0.2066458), wk =   0.0400000
        k(   32) = (   0.1000000   0.2886751  -0.3099687), wk =   0.0400000
        k(   33) = (   0.1000000   0.4041452   0.0000000), wk =   0.0400000
        k(   34) = (   0.1000000   0.4041452   0.1033229), wk =   0.0400000
        k(   35) = (   0.1000000   0.4041452   0.2066458), wk =   0.0400000
        k(   36) = (   0.1000000   0.4041452  -0.3099687), wk =   0.0400000
        k(   37) = (   0.1000000   0.5196152   0.0000000), wk =   0.0400000
        k(   38) = (   0.1000000   0.5196152   0.1033229), wk =   0.0400000
        k(   39) = (   0.1000000   0.5196152   0.2066458), wk =   0.0400000
        k(   40) = (   0.1000000   0.5196152  -0.3099687), wk =   0.0400000
        k(   41) = (   0.2000000   0.3464102   0.0000000), wk =   0.0200000
        k(   42) = (   0.2000000   0.3464102   0.1033229), wk =   0.0400000
        k(   43) = (   0.2000000   0.3464102   0.2066458), wk =   0.0400000
        k(   44) = (   0.2000000   0.3464102  -0.3099687), wk =   0.0200000
        k(   45) = (   0.2000000   0.4618802   0.0000000), wk =   0.0400000
        k(   46) = (   0.2000000   0.4618802   0.1033229), wk =   0.0400000
        k(   47) = (   0.2000000   0.4618802   0.2066458), wk =   0.0400000
        k(   48) = (   0.2000000   0.4618802  -0.3099687), wk =   0.0400000
        k(   49) = (   0.2000000   0.5773503   0.0000000), wk =   0.0200000
        k(   50) = (   0.2000000   0.5773503   0.1033229), wk =   0.0400000
        k(   51) = (   0.2000000   0.5773503   0.2066458), wk =   0.0400000
        k(   52) = (   0.2000000   0.5773503  -0.3099687), wk =   0.0200000
        k(   53) = (   0.3000000   0.5196152   0.0000000), wk =   0.0200000
        k(   54) = (   0.3000000   0.5196152   0.1033229), wk =   0.0400000
        k(   55) = (   0.3000000   0.5196152   0.2066458), wk =   0.0400000
        k(   56) = (   0.3000000   0.5196152  -0.3099687), wk =   0.0200000
        k(   57) = (   0.0000000  -0.1154701   0.1033229), wk =   0.0200000
        k(   58) = (   0.0000000  -0.1154701   0.2066458), wk =   0.0200000
        k(   59) = (   0.0000000  -0.2309401   0.1033229), wk =   0.0200000
        k(   60) = (   0.0000000  -0.2309401   0.2066458), wk =   0.0200000
        k(   61) = (   0.0000000  -0.3464102   0.1033229), wk =   0.0200000
        k(   62) = (   0.0000000  -0.3464102   0.2066458), wk =   0.0200000
        k(   63) = (   0.0000000  -0.4618802   0.1033229), wk =   0.0200000
        k(   64) = (   0.0000000  -0.4618802   0.2066458), wk =   0.0200000
        k(   65) = (  -0.1000000  -0.2886751   0.1033229), wk =   0.0400000
        k(   66) = (  -0.1000000  -0.2886751   0.2066458), wk =   0.0400000
        k(   67) = (  -0.1000000  -0.4041452   0.1033229), wk =   0.0400000
        k(   68) = (  -0.1000000  -0.4041452   0.2066458), wk =   0.0400000
        k(   69) = (  -0.1000000  -0.5196152   0.1033229), wk =   0.0400000
        k(   70) = (  -0.1000000  -0.5196152   0.2066458), wk =   0.0400000
        k(   71) = (  -0.2000000  -0.4618802   0.1033229), wk =   0.0400000
        k(   72) = (  -0.2000000  -0.4618802   0.2066458), wk =   0.0400000

     Initial potential from superposition of free atoms

     starting charge      51.9527, renormalised to      52.0000
     Starting wfcs are random

     Self-consistent Calculation

     iteration #  1     ecut=    80.00 Ry     beta= 0.70
     Davidson diagonalization with overlap
     ethr =  1.00E-02,  avg # of iterations =  9.4

     total energy              =    -864.24707904 Ry
     estimated scf accuracy    <       0.86208415 Ry

[...]

     total energy              =    -864.69191038 Ry
     estimated scf accuracy    <          3.8E-10 Ry

     iteration # 12     ecut=    80.00 Ry     beta= 0.70
     Davidson diagonalization with overlap
     ethr =  7.23E-13,  avg # of iterations =  2.0

     End of self-consistent calculation

          k = 0.0000 0.0000 0.0000 (  3875 PWs)   bands (ev):

  -113.3578-113.3576 -67.5660 -67.5630 -67.5630 -67.5628 -67.5625 -67.5625
    -7.9224  -7.1942   4.3692   4.3692   4.4152   4.4964   4.5610   4.5610
     5.5225   5.5225   5.7320   5.7320   6.0236   9.3233   9.3233  10.0278
    10.1139  10.1139  10.9810  15.4373  18.3673  23.1298  23.1298  24.2008
    24.3941  24.3941  26.7569  28.3994  28.3994  30.0814  30.0814  30.1493
    31.4464  33.4048  35.0776  35.0776  37.6897  38.6531  38.6531  38.9987
    41.3673  41.3673  44.7422  44.7422

[...]

          k = 0.0000-0.4619 0.2066 (  3879 PWs)   bands (ev):

[...]

          k =-0.1000-0.2887 0.1033 (  3872 PWs)   bands (ev):

[...]

          k =-0.2000-0.4619 0.2066 (  3864 PWs)   bands (ev):

  -113.3576-113.3576 -67.5653 -67.5650 -67.5640 -67.5638 -67.5635 -67.5633
    -7.1726  -7.0531   4.1925   4.2666   4.6386   4.7577   4.9644   4.9927
     5.5802   5.6682   5.8058   5.9470   6.4415   6.8122   7.5817   8.1889
     8.5150   9.0390  16.1872  17.1314  18.7350  18.9632  20.1642  20.7408
    23.3826  25.1898  26.1519  27.7202  30.1377  31.2885  33.1236  33.7521
    35.5453  35.9859  37.4509  38.0839  39.4615  39.9149  41.0455  42.9501
    43.2605  43.4095  44.7403  45.6095

     the Fermi energy is    10.5601 ev

!    total energy              =    -864.69191038 Ry
     estimated scf accuracy    <          1.4E-11 Ry
     smearing contrib. (-TS)   =      -0.00000000 Ry
     internal energy E=F+TS    =    -864.69191038 Ry

     The total energy is F=E-TS. E is the sum of the following terms:
     one-electron contribution =    -571.81606183 Ry
     hartree contribution      =     302.50969511 Ry
     xc contribution           =     -87.21499699 Ry
     ewald contribution        =    -508.17054667 Ry

     convergence has been achieved in  12 iterations

     Writing all to output data dir out/mp-2133.save/

     General routines

     Parallel routines

   This run was terminated on:  16:57:10  19Nov2023

   JOB DONE.