     Program PWSCF v.7.1 starts on  5Dec2023 at  4:44:35

     Reading input from pw_mp-661_scf_k3000_E67.in
Warning: card &CELL ignored
Warning: card / ignored

     Current dimensions of program PWSCF are:
     Max number of different atomic species (ntypx) = 10
     Max number of k-points (npk) =  40000
     Max angular momentum in pseudopotentials (lmaxx) =  4

     R & G space division:  proc/nbgrp/npool/nimage =      24
     Subspace diagonalization in iterative solution of the eigenvalue problem:
     a serial algorithm will be used

     Using Slab Decomposition

     bravais-lattice index     =            4
     lattice parameter (alat)  =       5.9122  a.u.
     unit-cell volume          =     286.9883 (a.u.)^3
     number of atoms/cell      =            4
     number of atomic types    =            2
     number of electrons       =        32.00
     number of Kohn-Sham states=           32
     kinetic-energy cutoff     =      67.0000  Ry
     charge density cutoff     =     268.0000  Ry
     scf convergence threshold =      1.0E-10
     mixing beta               =       0.7000
     number of iterations used =            8  plain     mixing
     Exchange-correlation= PBE
                           (   1   4   3   4   0   0   0)

     celldm(1)=   5.912174  celldm(2)=   0.000000  celldm(3)=   1.603584
     celldm(4)=   0.000000  celldm(5)=   0.000000  celldm(6)=   0.000000

     crystal axes: (cart. coord. in units of alat)
               a(1) = (   1.000000   0.000000   0.000000 )
               a(2) = (  -0.500000   0.866025   0.000000 )
               a(3) = (   0.000000   0.000000   1.603584 )

     reciprocal axes: (cart. coord. in units 2 pi/alat)
               b(1) = (  1.000000  0.577350  0.000000 )
               b(2) = (  0.000000  1.154701  0.000000 )
               b(3) = (  0.000000  0.000000  0.623603 )

     PseudoPot. # 1 for Al read from file:
     /usr/scratch4/magr4985/MG/HTDF/pseudo/SG15/Al.upf
     MD5 check sum: 2d9e7bc02555220d62fad08c3c4858e7
     Pseudo is Norm-conserving, Zval = 11.0
     Generated using ONCVPSP code by D. R. Hamann
     Using radial grid of  602 points,  4 beta functions with:
                l(1) =   0
                l(2) =   0
                l(3) =   1
                l(4) =   1

     PseudoPot. # 2 for N  read from file:
     /usr/scratch4/magr4985/MG/HTDF/pseudo/SG15/N.upf
     MD5 check sum: c233fa8df51455e992258b7c3dee8a9f
     Pseudo is Norm-conserving, Zval =  5.0
     Generated using ONCVPSP code by D. R. Hamann
     Using radial grid of  602 points,  4 beta functions with:
                l(1) =   0
                l(2) =   0
                l(3) =   1
                l(4) =   1

     atomic species   valence    mass     pseudopotential
        Al            11.00    26.98150     Al( 1.00)
        N              5.00    14.00670     N ( 1.00)

      6 Sym. Ops. (no inversion) found

   Cartesian axes

     site n.     atom                  positions (alat units)
         1           Al  tau(   1) = (   0.0000000   0.5773502   0.8006489  )
         2           Al  tau(   2) = (   0.5000000   0.2886752   1.6024411  )
         3           N   tau(   3) = (   0.0000000   0.5773502   1.4122977  )
         4           N   tau(   4) = (   0.5000000   0.2886752   0.6105055  )

     number of k points=    72  Gaussian smearing, width (Ry)=  0.0005
                       cart. coord. in units 2pi/alat
        k(    1) = (   0.0000000   0.0000000   0.0000000), wk =   0.0033333
        k(    2) = (   0.0000000   0.0000000   0.1039338), wk =   0.0066667
        k(    3) = (   0.0000000   0.0000000   0.2078677), wk =   0.0066667
        k(    4) = (   0.0000000   0.0000000  -0.3118015), wk =   0.0033333
        k(    5) = (   0.0000000   0.1154701   0.0000000), wk =   0.0200000
        k(    6) = (   0.0000000   0.1154701   0.1039338), wk =   0.0200000
        k(    7) = (   0.0000000   0.1154701   0.2078677), wk =   0.0200000
        k(    8) = (   0.0000000   0.1154701  -0.3118015), wk =   0.0200000
        k(    9) = (   0.0000000   0.2309401   0.0000000), wk =   0.0200000
        k(   10) = (   0.0000000   0.2309401   0.1039338), wk =   0.0200000
        k(   11) = (   0.0000000   0.2309401   0.2078677), wk =   0.0200000
        k(   12) = (   0.0000000   0.2309401  -0.3118015), wk =   0.0200000
        k(   13) = (   0.0000000   0.3464102   0.0000000), wk =   0.0200000
        k(   14) = (   0.0000000   0.3464102   0.1039338), wk =   0.0200000
        k(   15) = (   0.0000000   0.3464102   0.2078677), wk =   0.0200000
        k(   16) = (   0.0000000   0.3464102  -0.3118015), wk =   0.0200000
        k(   17) = (   0.0000000   0.4618802   0.0000000), wk =   0.0200000
        k(   18) = (   0.0000000   0.4618802   0.1039338), wk =   0.0200000
        k(   19) = (   0.0000000   0.4618802   0.2078677), wk =   0.0200000
        k(   20) = (   0.0000000   0.4618802  -0.3118015), wk =   0.0200000
        k(   21) = (   0.0000000  -0.5773503   0.0000000), wk =   0.0100000
        k(   22) = (   0.0000000  -0.5773503   0.1039338), wk =   0.0200000
        k(   23) = (   0.0000000  -0.5773503   0.2078677), wk =   0.0200000
        k(   24) = (   0.0000000  -0.5773503  -0.3118015), wk =   0.0100000
        k(   25) = (   0.1000000   0.1732051   0.0000000), wk =   0.0200000
        k(   26) = (   0.1000000   0.1732051   0.1039338), wk =   0.0400000
        k(   27) = (   0.1000000   0.1732051   0.2078677), wk =   0.0400000
        k(   28) = (   0.1000000   0.1732051  -0.3118015), wk =   0.0200000
        k(   29) = (   0.1000000   0.2886751   0.0000000), wk =   0.0400000
        k(   30) = (   0.1000000   0.2886751   0.1039338), wk =   0.0400000
        k(   31) = (   0.1000000   0.2886751   0.2078677), wk =   0.0400000
        k(   32) = (   0.1000000   0.2886751  -0.3118015), wk =   0.0400000
        k(   33) = (   0.1000000   0.4041452   0.0000000), wk =   0.0400000
        k(   34) = (   0.1000000   0.4041452   0.1039338), wk =   0.0400000
        k(   35) = (   0.1000000   0.4041452   0.2078677), wk =   0.0400000
        k(   36) = (   0.1000000   0.4041452  -0.3118015), wk =   0.0400000
        k(   37) = (   0.1000000   0.5196152   0.0000000), wk =   0.0400000
        k(   38) = (   0.1000000   0.5196152   0.1039338), wk =   0.0400000
        k(   39) = (   0.1000000   0.5196152   0.2078677), wk =   0.0400000
        k(   40) = (   0.1000000   0.5196152  -0.3118015), wk =   0.0400000
        k(   41) = (   0.2000000   0.3464102   0.0000000), wk =   0.0200000
        k(   42) = (   0.2000000   0.3464102   0.1039338), wk =   0.0400000
        k(   43) = (   0.2000000   0.3464102   0.2078677), wk =   0.0400000
        k(   44) = (   0.2000000   0.3464102  -0.3118015), wk =   0.0200000
        k(   45) = (   0.2000000   0.4618802   0.0000000), wk =   0.0400000
        k(   46) = (   0.2000000   0.4618802   0.1039338), wk =   0.0400000
        k(   47) = (   0.2000000   0.4618802   0.2078677), wk =   0.0400000
        k(   48) = (   0.2000000   0.4618802  -0.3118015), wk =   0.0400000
        k(   49) = (   0.2000000   0.5773503   0.0000000), wk =   0.0200000
        k(   50) = (   0.2000000   0.5773503   0.1039338), wk =   0.0400000
        k(   51) = (   0.2000000   0.5773503   0.2078677), wk =   0.0400000
        k(   52) = (   0.2000000   0.5773503  -0.3118015), wk =   0.0200000
        k(   53) = (   0.3000000   0.5196152   0.0000000), wk =   0.0200000
        k(   54) = (   0.3000000   0.5196152   0.1039338), wk =   0.0400000
        k(   55) = (   0.3000000   0.5196152   0.2078677), wk =   0.0400000
        k(   56) = (   0.3000000   0.5196152  -0.3118015), wk =   0.0200000
        k(   57) = (   0.0000000  -0.1154701   0.1039338), wk =   0.0200000
        k(   58) = (   0.0000000  -0.1154701   0.2078677), wk =   0.0200000
        k(   59) = (   0.0000000  -0.2309401   0.1039338), wk =   0.0200000
        k(   60) = (   0.0000000  -0.2309401   0.2078677), wk =   0.0200000
        k(   61) = (   0.0000000  -0.3464102   0.1039338), wk =   0.0200000
        k(   62) = (   0.0000000  -0.3464102   0.2078677), wk =   0.0200000
        k(   63) = (   0.0000000  -0.4618802   0.1039338), wk =   0.0200000
        k(   64) = (   0.0000000  -0.4618802   0.2078677), wk =   0.0200000
        k(   65) = (  -0.1000000  -0.2886751   0.1039338), wk =   0.0400000
        k(   66) = (  -0.1000000  -0.2886751   0.2078677), wk =   0.0400000
        k(   67) = (  -0.1000000  -0.4041452   0.1039338), wk =   0.0400000
        k(   68) = (  -0.1000000  -0.4041452   0.2078677), wk =   0.0400000
        k(   69) = (  -0.1000000  -0.5196152   0.1039338), wk =   0.0400000
        k(   70) = (  -0.1000000  -0.5196152   0.2078677), wk =   0.0400000
        k(   71) = (  -0.2000000  -0.4618802   0.1039338), wk =   0.0400000
        k(   72) = (  -0.2000000  -0.4618802   0.2078677), wk =   0.0400000

     Initial potential from superposition of free atoms

     starting charge      31.8318, renormalised to      32.0000
     Starting wfcs are random

     Self-consistent Calculation

     iteration #  1     ecut=    67.00 Ry     beta= 0.70
     Davidson diagonalization with overlap
     ethr =  1.00E-02,  avg # of iterations =  9.0

     total energy              =    -316.56296984 Ry
     estimated scf accuracy    <       1.15288572 Ry

[...]

     total energy              =    -317.04030247 Ry
     estimated scf accuracy    <          1.1E-10 Ry

     iteration # 11     ecut=    67.00 Ry     beta= 0.70
     Davidson diagonalization with overlap
     ethr =  3.31E-13,  avg # of iterations =  2.0

     End of self-consistent calculation

          k = 0.0000 0.0000 0.0000 (  2683 PWs)   bands (ev):

   -91.4185 -91.4173 -52.9479 -52.9380 -52.9242 -52.9242 -52.9225 -52.9225
    -5.7772  -3.6814   3.3616   8.4315   8.4315   9.0774   9.0774   9.2758
    13.3381  15.8180  19.7270  20.3531  20.3531  22.2067  22.2940  22.2940
    23.7673  23.7673  23.9846  26.5675  26.5675  28.5347  31.3723  31.9497

[...]

          k = 0.0000-0.4619 0.2079 (  2665 PWs)   bands (ev):

[...]

          k =-0.1000-0.2887 0.1039 (  2658 PWs)   bands (ev):

[...]

          k =-0.2000-0.4619 0.2079 (  2655 PWs)   bands (ev):

   -91.4172 -91.4170 -52.9435 -52.9419 -52.9289 -52.9285 -52.9265 -52.9256
    -3.7213  -3.3001   4.2580   4.5912   6.1803   6.9278   7.5826   8.5009
    15.3945  16.2121  17.9449  18.7179  20.2501  20.6077  21.8819  23.5008
    24.9028  25.5564  27.9049  28.6557  31.5781  32.1789  33.5842  34.3676

     the Fermi energy is    11.2492 ev

!    total energy              =    -317.04030247 Ry
     estimated scf accuracy    <          1.3E-12 Ry
     smearing contrib. (-TS)   =      -0.00000000 Ry
     internal energy E=F+TS    =    -317.04030247 Ry

     The total energy is F=E-TS. E is the sum of the following terms:
     one-electron contribution =    -171.85749091 Ry
     hartree contribution      =      78.80844587 Ry
     xc contribution           =     -41.91136334 Ry
     ewald contribution        =    -182.07989410 Ry

     convergence has been achieved in  11 iterations

     Writing all to output data dir out/mp-661.save/

     General routines

     Parallel routines

   This run was terminated on:   4:44:56   5Dec2023

   JOB DONE.